78    18    -4.9914568490        4.9914217738       -3.5823155897 0.0
78    18    -0.0000001815       -0.0000018687       -3.4961007986 0.0
78    18    -0.0000000236       -5.3531447014       -3.3282612891 0.0
78    18     4.9914560031        4.9914216409       -3.5823154171 0.0
78    18     4.9914691975       -4.9914264879       -3.5822936700 0.0
78    18    -0.0000004185        5.3531518525       -3.3282604835 0.0
78    18    -4.9914691791       -4.9914264457       -3.5822939160 0.0
78    18     5.3532046715        0.0000011395       -3.3282547276 0.0
78    18    -5.3532051460        0.0000011731       -3.3282548156 0.0
26    16     2.5513692013       -2.5513245662        0.0000000929 0.5
26    16     7.1831765497        2.8796308384        0.0000000796 0.5
26    16    -2.5513695025       -2.5513245119        0.0000000151 0.5
26    16     7.1831961459       -2.8796080204        0.0000001363 0.5
26    16    -7.1831772740        2.8796308738       -0.0000000965 0.5
26    16    -2.8796309519        7.1830921375       -0.0000000209 0.5
26    16     2.8796150370       -7.1831029824        0.0000000764 0.5
26    16    -2.5513630354        2.5513164316        0.0000000037 0.5
26    16     2.8796299394        7.1830921929        0.0000000174 0.5
26    16    -2.8796153350       -7.1831029042       -0.0000000100 0.5
26    16    -7.1831964130       -2.8796082620       -0.0000000928 0.5
26    16     2.5513623034        2.5513164445        0.0000000714 0.5
78    18    -4.9914569549        4.9914217861        3.5823154231 0.0
78    18     5.3532046855        0.0000011895        3.3282548454 0.0
78    18    -0.0000002740       -0.0000018672        3.4961007310 0.0
78    18     4.9914559823        4.9914217448        3.5823154346 0.0
78    18     4.9914690892       -4.9914264753        3.5822938250 0.0
78    18    -0.0000004791        5.3531519368        3.3282604430 0.0
78    18    -0.0000001327       -5.3531447946        3.3282613102 0.0
78    18    -4.9914693077       -4.9914264464        3.5822937762 0.0
78    18    -5.3532053479        0.0000011784        3.3282546462 0.0
