15 5 3.6760465442479529e-08 0.011107765239795741 0.44147276249802592
15 5 3.4185562869609908e-08 0.13605545366243713 0.44138408097539089
15 5 0.99999996239357003 0.26109335970404679 0.44152357474024334
15 5 0.99999992110650171 0.38601251060865921 0.44147282653977366
15 5 1.5353387691538442e-09 0.51111230073009162 0.44150669973454226
15 5 0.99999993667009912 0.63609411964903617 0.44138564886489667
15 5 0.99999980306342073 0.7611586383510287 0.44147527989515278
15 5 8.2712024950346946e-08 0.88605642696376663 0.44149253483415274
15 5 0.090895471024797475 0.011108932817956834 0.44147173588315669
15 5 0.090903479948539853 0.13606544403281959 0.44139036075574295
15 5 0.090938149427235992 0.26109880117453277 0.44154507970659052
15 5 0.09098077883015393 0.38601580450322137 0.44146138584003358
15 5 0.09094476364586522 0.51109874184979043 0.44153627571404253
15 5 0.09091335536741911 0.63609612781159031 0.44137359491412403
15 5 0.090902952868367679 0.76116071909756167 0.44146046777382969
15 5 0.090894029221199046 0.88605930069147476 0.44150502226891047
15 5 0.18178568245212179 0.011151442357408708 0.44155586150005588
15 5 0.18181387870285695 0.13607326110190446 0.44139752112189951
15 5 0.1819221637066939 0.261163092890492 0.44156460538850612
15 5 0.18195789550554337 0.38600113997485463 0.44134477512056791
15 5 0.18189987365036803 0.51112078192053534 0.44160380805344635
15 5 0.18184789100758972 0.63609004583018758 0.44139306351838803
15 5 0.18181526243364959 0.76114726173899327 0.44144634136521277
15 5 0.18178970876202002 0.8860592732231154 0.44147342472850176
15 5 0.27270665395236288 0.011163864795774123 0.44155039098581556
15 5 0.27276771244709291 0.13611963127893648 0.4413755063623353
15 5 0.27288969874821212 0.2612603915493325 0.44133641443656962
15 5 0.27293624014874995 0.38599849153450377 0.44165781959296624
15 5 0.27282425408518396 0.51134291169458235 0.44093235741819081
15 5 0.27278967001992493 0.63597528275032844 0.44172768202229412
15 5 0.27277343139552052 0.761083985764062 0.44150243569893194
15 5 0.27270902256583479 0.88607191360718207 0.44145125349500614
15 5 0.36366142405756702 0.011172126070964516 0.44159386242066856
15 5 0.36373059369073257 0.13614622189190581 0.44127443407279004
15 5 0.36418724624853249 0.26221403235900459 0.44117720972358115
15 5 0.36353380076629688 0.38424379936290826 0.44113773674873125
15 5 0.36367822251351267 0.51167361584914683 0.44008515087968741
15 5 0.36386528638687388 0.63551568033646266 0.44254026757244663
15 5 0.36373513051839984 0.76096939838089883 0.44162924177080987
15 5 0.36365765383192455 0.88606765950025612 0.44140891708487601
15 5 0.45457952268994628 0.011145813724124678 0.44161062297920994
15 5 0.45461683378418782 0.13615027412597738 0.4412776006997286
15 5 0.45512882753666734 0.2630981393001755 0.44157803808034291
15 5 0.45881152931694158 0.39176053644275066 0.45054735513403499
15 5 0.45360515459144291 0.50993381146332917 0.43386849438644026
15 5 0.45460636975947699 0.63508590978482915 0.44243840443972476
15 5 0.45459601952690998 0.76087813670361459 0.44157505695493521
15 5 0.45456320886460166 0.88604537138513351 0.44135883602760162
15 5 0.54542049907865464 0.011145808905701536 0.44161060584856393
15 5 0.54538320617873137 0.136150273949286 0.44127758255838523
15 5 0.5448712577571857 0.26309814448062496 0.44157801217871728
15 5 0.54118856290579764 0.39176052701159847 0.4505473345913979
15 5 0.54639496100251495 0.50993381240269753 0.43386847865494382
15 5 0.54539369056688936 0.63508590701557599 0.44243838016194476
15 5 0.5454040018379035 0.76087813394607984 0.44157505432601141
15 5 0.54543681355084683 0.88604537865558852 0.441358828606849
15 5 0.63633858634159768 0.011172112597253281 0.44159381230997241
15 5 0.63626941995543862 0.13614621230878821 0.44127440002317903
15 5 0.63581279884005903 0.26221404990114622 0.44117712891060779
15 5 0.63646626516739224 0.38424376316864928 0.44113766906542712
15 5 0.63632187658311434 0.5116736290254178 0.44008511539395118
15 5 0.63613476537769742 0.63551569714367551 0.44254018737784334
15 5 0.63626487281597721 0.76096939599489122 0.44162928055835871
15 5 0.63634235566144426 0.88606769788636819 0.44140888975889542
15 5 0.72729336635143649 0.011163863203484154 0.44155033104271385
15 5 0.72723226255950413 0.1361195716671092 0.4413755045505125
15 5 0.72711032522519414 0.26126040757528257 0.44133633609529338
15 5 0.72706383546866871 0.38599842943107171 0.44165782860869174
15 5 0.727175764582494 0.51134292234072709 0.44093232835400059
15 5 0.72721034970749776 0.63597531873584745 0.44172755389972884
15 5 0.72722653331169695 0.76108403504615818 0.44150250700571486
15 5 0.72729093996471095 0.88607200266811892 0.44145120825966561
15 5 0.81821436772390765 0.011151500115095548 0.44155566803771173
15 5 0.81818608424236583 0.13607313687415729 0.44139750255170124
15 5 0.81807782746843383 0.26116304040557992 0.44156464136432172
15 5 0.8180421221395684 0.38600113299004596 0.4413448519001133
15 5 0.81810009965499675 0.51112075604078122 0.44160376922457489
15 5 0.81815205932986812 0.63609002659932667 0.44139297086954782
15 5 0.81818465575058896 0.76114744133941536 0.44144635222955358
15 5 0.81821027878629449 0.88605935041170147 0.44147343359401475
15 5 0.90910462426330474 0.01110896893648348 0.44147174779904713
15 5 0.90909651982145778 0.13606530592200938 0.44139041431377568
15 5 0.90906178799521486 0.26109872855154392 0.44154520198059843
15 5 0.9090191863980599 0.38601583586944693 0.44146145204330728
15 5 0.90905521362877262 0.51109870058462481 0.44153625162203902
15 5 0.90908651739351132 0.63609603496739342 0.44137360409505438
15 5 0.90909682729936814 0.76116098553007827 0.44146040764848055
15 5 0.90910598290401734 0.88605934437055078 0.44150507429806257
15 5 9.9259433043522417e-08 0.11394613554007373 0.55850586532565183
15 5 0.99999995170050771 0.23883863545121126 0.55853013572636756
15 5 0.99999996633517574 0.36389974949498305 0.55857311485080996
15 5 4.8432364330843252e-09 0.48881552676390205 0.55845749251623522
15 5 0.99999991700499724 0.61398577108286745 0.55850108457667325
15 5 0.99999986877754732 0.73889409912534265 0.55848093538232502
15 5 2.5088227221022857e-08 0.86395078924181434 0.55862226965729112
15 5 3.6311225797542323e-08 0.98890034065060584 0.55852570674332358
15 5 0.090885637469685129 0.11395613639532259 0.55850917668224342
15 5 0.090925354046954357 0.23883588051927571 0.55854290422704311
15 5 0.090940221472698007 0.3639077803255657 0.55855382172227641
15 5 0.090989254450545107 0.48878614496510586 0.55846322310419216
15 5 0.090901538914006014 0.61397762979080628 0.55848544695387781
15 5 0.090910969019377466 0.73889564113831652 0.55846461463786379
15 5 0.090904049381131877 0.86394147760380324 0.55862371479634609
15 5 0.090885615175332488 0.98890447380236013 0.55852916378293316
15 5 0.18178912166685293 0.11396289568706507 0.55851748231550802
15 5 0.18189235470354628 0.23884630059967898 0.55853825802265689
15 5 0.18188411891001346 0.36394239754869084 0.55845133771611244
15 5 0.18196222090343797 0.48876325580224583 0.55847353904096164
15 5 0.18182547331129462 0.61395338060134053 0.55851490588066033
15 5 0.18183493868566539 0.73888455254533358 0.55844278958452764
15 5 0.18182484234746826 0.8639129523547292 0.55857888511439557
15 5 0.18176404808655502 0.98887054972429178 0.55860045771691824
15 5 0.27273444201660696 0.11398748068126309 0.55850524051567951
15 5 0.27284020103558809 0.23891929700895026 0.55820685882036369
15 5 0.27277547195252655 0.36392970257861146 0.55879441474406821
15 5 0.27298926040772259 0.48868617076410292 0.5575657006794873
15 5 0.27279494615444605 0.61386211266578916 0.55879668662385673
15 5 0.27280276445061596 0.73879033470563338 0.55850173558138283
15 5 0.27275225988186874 0.86387793535205581 0.55853665499937311
15 5 0.27269667081085469 0.98884082014042995 0.55854639798539296
15 5 0.36368698071200617 0.11403868091150558 0.55847323409902372
15 5 0.36389759483368428 0.23928898891442119 0.55773754949797516
15 5 0.36345868720806734 0.36373797586493473 0.55901552979491498
15 5 0.36398519769901205 0.48951778351708425 0.55695180478777939
15 5 0.36410561537577335 0.61310035195413171 0.55954563121290202
15 5 0.36376928882467213 0.73866064763475847 0.55869293228429406
15 5 0.36368675863716676 0.86386306162400628 0.55851598167312877
15 5 0.36364748069208841 0.98884268559519761 0.55858636003575923
15 5 0.45458284248327491 0.11412208980551262 0.55856828698506156
15 5 0.45464821409901657 0.23961529685227234 0.55771529716273593
15 5 0.45426359262088745 0.36526779382891361 0.56308818999346411
15 5 0.45937474488454261 0.4803622306869415 0.5429305960934272
15 5 0.45539395772125346 0.61171384216606506 0.55872170110324204
15 5 0.45465541254831365 0.73859249731510668 0.55868929729543704
15 5 0.45457573447370275 0.86389343840929622 0.55850759699357466
15 5 0.45457123546097761 0.98886548738406876 0.5586661773216145
15 5 0.54541718325963018 0.11412208221162692 0.55856829500835592
15 5 0.54535182629785617 0.23961529919077978 0.55771530791207069
15 5 0.5457364867047021 0.36526778455158543 0.56308823591011092
15 5 0.54062533487261011 0.48036220925258249 0.5429307224703307
15 5 0.54460614819364062 0.61171384246417981 0.55872173120729551
15 5 0.54534464797855442 0.73859249021951945 0.5586893237977435
15 5 0.54542428410821575 0.86389344173473437 0.55850761638239577
15 5 0.54542878033280517 0.98886549226409681 0.55866619410632157
15 5 0.6363130376618531 0.1140386433012547 0.55847326754030024
15 5 0.63610243966316504 0.23928899391603889 0.55773754901397454
15 5 0.6365413841566917 0.36373796092685845 0.55901563312788871
15 5 0.63601491054465453 0.48951776810874958 0.55695189008700186
15 5 0.63589445164248504 0.61310038937217937 0.55954568894122625
15 5 0.63623072586054741 0.73866061866795696 0.55869303407589865
15 5 0.6363132251384972 0.86386308805737133 0.55851602902982789
15 5 0.63635252739938419 0.9888426978237872 0.55858641050011193
15 5 0.72726553712742492 0.11398739754758684 0.55850529958937856
15 5 0.72715981682206099 0.23891926206126055 0.55820683844561825
15 5 0.72722457494540749 0.3639296622503545 0.55879451565543459
15 5 0.72701076666676567 0.48868614338506527 0.55756572965880913
15 5 0.7272051393729555 0.61386218436389428 0.55879666385458138
15 5 0.72719722098157402 0.73879030958888414 0.55850183546559895
15 5 0.72724767321060058 0.86387801945931408 0.55853669191617461
15 5 0.72730334164065225 0.98884084667167771 0.55854642145802313
15 5 0.81821088865120628 0.11396282945385716 0.55851754614477667
15 5 0.81810763735246861 0.2388461647587298 0.55853828814881501
15 5 0.81811588411094893 0.36394236999398594 0.55845145394226325
15 5 0.81803775588979788 0.48876325643490376 0.55847356933244374
15 5 0.81817452530635082 0.61395335716256538 0.55851487248124143
15 5 0.81816498297859686 0.73888459190398115 0.55844275006899313
15 5 0.81817505264212065 0.86391311643648727 0.55857900686401696
15 5 0.81823597931982495 0.98887064356806331 0.55860026711305777
15 5 0.90911441448831065 0.11395609501329262 0.55850929395115201
15 5 0.90907455185927843 0.23883570125120188 0.55854299269837371
15 5 0.90905974880901597 0.36390777357351228 0.55855389142428713
15 5 0.90901072328152277 0.48878618023837272 0.55846327717817357
15 5 0.90909838538151011 0.6139775504924162 0.55848548379659169
15 5 0.90908886079759854 0.73889570063024734 0.55846446915237924
15 5 0.90909588888237325 0.86394165604017092 0.55862387817109638
15 5 0.9091144778809902 0.98890445757054812 0.55852914574269075
15 5 0.045446378544500267 0.073623176153542483 0.55855262999271194
15 5 0.045458376735557818 0.19852003556281686 0.55841666779063126
15 5 0.045472729808341786 0.32360230763149933 0.55860359589825526
15 5 0.045485194123631348 0.4485211263692046 0.55840036498907242
15 5 0.04544735159781628 0.57366697389274213 0.5586376818172295
15 5 0.045455261223430306 0.69858037261398764 0.5584095347534378
15 5 0.045448011958161394 0.82362341873490286 0.55868511683271738
15 5 0.045441592398680182 0.94857444798861512 0.55849792489985772
15 5 0.1363352866757114 0.073637927707656425 0.55855970665759791
15 5 0.13640611866060809 0.19854066020834796 0.55839887608774419
15 5 0.13642666322169975 0.32364592392873981 0.55856867045629777
15 5 0.13646953610071158 0.44849634666003341 0.55834564015848953
15 5 0.13635041957263833 0.57366795021549299 0.55865467754730258
15 5 0.13636599849078609 0.69858357096888002 0.55841251957600901
15 5 0.13635138807740169 0.82361574450404351 0.55865519945077757
15 5 0.13632401853941922 0.948579133924909 0.55854541861608964
15 5 0.22726572141912063 0.073683783190363408 0.55859461528149434
15 5 0.22739590189173756 0.19857433876036909 0.55831091007207445
15 5 0.22732902974872987 0.32369329254283236 0.55864485912356909
15 5 0.22748000396306003 0.44855391553653989 0.55803294333695153
15 5 0.22726369261802518 0.57364177606648348 0.55873385723844271
15 5 0.22728094672814614 0.69856967287709415 0.55842422434567018
15 5 0.22727593755318709 0.82360428068182057 0.55861245691336436
15 5 0.22722375565688455 0.94856965641721969 0.55849314542696959
15 5 0.31822200756840946 0.073736142516996034 0.55858721081967133
15 5 0.31851960782374511 0.19889811906246418 0.55780175485705419
15 5 0.31802615778955901 0.32345487050620308 0.55934362417290684
15 5 0.318837723275116 0.44899888907223839 0.5575705038783374
15 5 0.31811912562453143 0.57343093556806335 0.55872884918857002
15 5 0.31823862646158185 0.69847427943414253 0.55880057756044432
15 5 0.3182147512433216 0.82360043900511937 0.55859552907334908
15 5 0.31816627002957804 0.94856887376829258 0.55844931460658831
15 5 0.40915606987603254 0.07376208256921081 0.55855534297067844
15 5 0.40938520848636251 0.19913485654036822 0.55725553491673097
15 5 0.40942793247305465 0.3240381350392858 0.56059274895998501
15 5 0.40857621720525344 0.44863467090563713 0.55586513344514532
15 5 0.40926096056421896 0.57222252397315043 0.55819023310757576
15 5 0.40919216240527223 0.69832560572660163 0.55918270814176296
15 5 0.40914007957856585 0.82357608436011975 0.55866982603283677
15 5 0.40910966013523375 0.94855496904387449 0.55845596549591592
15 5 0.50000001989469312 0.073756155624273623 0.55852245188601879
15 5 0.50000003603274679 0.19927421984985791 0.55706698424999324
15 5 0.50000005879958986 0.32504359595541876 0.56254359661874698
15 5 0.50000004332895132 0.57026893024972825 0.55514643871963465
15 5 0.50000001788271631 0.69815136633623254 0.5592652602246454
15 5 0.50000001027242591 0.82355435035028834 0.55870506707742174
15 5 0.50000001475652511 0.94853132142101448 0.55850593793324776
15 5 0.59084395046343197 0.07376207008222456 0.55855534745725988
15 5 0.59061484301771683 0.19913486890661936 0.55725556113337638
15 5 0.59057214693975946 0.32403812303265978 0.56059282217743089
15 5 0.59142391891113877 0.44863463300605588 0.55586520073447698
15 5 0.59073914563723096 0.57222254724203081 0.55819035016563823
15 5 0.59080786514060457 0.69832559145398032 0.55918277126031712
15 5 0.59085993215337063 0.82357609861468939 0.55866985590764939
15 5 0.59089036436304587 0.94855498591207699 0.55845601278620449
15 5 0.68177798025746905 0.073736090612347649 0.55858721254910348
15 5 0.68148040036262536 0.19889812692293404 0.55780177770263983
15 5 0.68197387910894403 0.32345485257026935 0.55934370104135811
15 5 0.68116234292706568 0.44899885434323283 0.55757051479294351
15 5 0.68188097021356997 0.57343101480404612 0.55872896286915263
15 5 0.6817613880949196 0.69847427064488721 0.55880062913415562
15 5 0.68178523106489186 0.82360049710556993 0.55859564610055612
15 5 0.68183374825455878 0.94856892233717538 0.5584493791054318
15 5 0.77273427771831871 0.073683729173676146 0.55859465722596435
15 5 0.77260405111002683 0.19857427594905064 0.55831091059126592
15 5 0.77267100001051081 0.3236932637542852 0.55864497735054597
15 5 0.77252000105484642 0.44855391141830853 0.55803300219904861
15 5 0.77273631611662341 0.57364179404970816 0.55873386290316063
15 5 0.77271906202161122 0.69856969285156056 0.55842418789245263
15 5 0.77272400873602909 0.82360440637099075 0.5586125443269353
15 5 0.77277628859203473 0.94856974162672314 0.55849311789794787
15 5 0.86366475239142027 0.073637881318718387 0.55855985326685265
15 5 0.86359378050523938 0.19854045940626119 0.55839882258528006
15 5 0.86357332408657272 0.32364590980948399 0.55856877431589169
15 5 0.86353045318262556 0.44849638291924732 0.55834576807211977
15 5 0.86364951994792227 0.57366788468974939 0.55865465499047751
15 5 0.86363388930628182 0.69858361981195616 0.5584123615110792
15 5 0.8636485244976615 0.82361594048379361 0.55865548152962818
15 5 0.86367599863541245 0.94857921419646918 0.55854532570555993
15 5 0.9545537541344109 0.073623199095643244 0.55855274751031858
15 5 0.95454160443370761 0.19851994742891091 0.55841663261106211
15 5 0.95452722220920871 0.32360229344682928 0.5586036894957177
15 5 0.95451478578147453 0.44852116319648183 0.55840046558701273
15 5 0.95455257897314405 0.57366690745073601 0.55863762681160145
15 5 0.95454449633201199 0.69858037742093593 0.55840943316901448
15 5 0.9545518985670316 0.82362355918751629 0.55868529690386148
15 5 0.95455849559617478 0.94857443330397917 0.55849785424196652
15 5 0.045446265236169216 0.051434277315109619 0.44148521635375843
15 5 0.045446611627698245 0.17638205053324862 0.44132067337486774
15 5 0.045465207145527951 0.30140526051962507 0.4415640968233624
15 5 0.045489864565793639 0.42633523941441354 0.4413692284296743
15 5 0.045475729948545006 0.55142775408254252 0.44163053953099496
15 5 0.045454429899526694 0.67641926809164143 0.44133425604046828
15 5 0.045449379825977208 0.80148078532465949 0.44158636996596146
15 5 0.045444789274266977 0.92638343861027839 0.44143425502000178
15 5 0.1363282833032185 0.051443551019304742 0.4415041794430693
15 5 0.13635485150615476 0.17638714186367052 0.44131885441273178
15 5 0.13640059550981937 0.30141352006571481 0.44156374736941645
15 5 0.13647800038920774 0.42632872329048266 0.44131679364112275
15 5 0.13640992393703522 0.55140483310646382 0.44167229721533746
15 5 0.13638091581205594 0.67641040558187759 0.44134703250269947
15 5 0.13636039258319743 0.80147236457761362 0.44156326122684619
15 5 0.13633818946072196 0.92637873287148165 0.44146908062621432
15 5 0.22724267103427731 0.051443895923940067 0.44156379477278856
15 5 0.22727646048821501 0.17638240550479881 0.44127861977547411
15 5 0.22735152336607367 0.30149589561593332 0.44157540595539446
15 5 0.22747416126390471 0.42629325535232226 0.44117439064390201
15 5 0.22725661039789777 0.55151227136534642 0.44165013282339755
15 5 0.22736750672006314 0.67635352780231039 0.44139157026361175
15 5 0.22731634152276251 0.80140124396664025 0.44155414894414885
15 5 0.22723947235369119 0.92636359450991335 0.44143061995172739
15 5 0.31817962154921881 0.051432493638483158 0.44157994029954417
15 5 0.31824929096773286 0.17640320517467334 0.44097962414800257
15 5 0.3181248772612531 0.30178736173333698 0.44203213807095321
15 5 0.31890626667973443 0.42561291094563514 0.44102355151505146
15 5 0.31812767164383049 0.55177243602449577 0.44135324106051999
15 5 0.31852567426473655 0.67594638910987714 0.44197588511100949
15 5 0.31829608163444129 0.80128602704547447 0.44159061364215008
15 5 0.31817880042456492 0.92634077466209785 0.44138796498220079
15 5 0.40912685208083138 0.051454020534042064 0.44152913935375593
15 5 0.40918355423750014 0.17647470695709885 0.44051383815744577
15 5 0.40935874031009151 0.3029691345221876 0.4429057437060771
15 5 0.4084409615656911 0.4250011956745916 0.44105964715413626
15 5 0.40925468597079362 0.55181592012563829 0.44014355613082184
15 5 0.40938793403467161 0.67562152360000371 0.44247007371557773
15 5 0.40919439482833125 0.80123741427911399 0.44165817288432474
15 5 0.40911254738552671 0.92636277322087024 0.44134569397057477
15 5 0.50000001200108435 0.051482110478770722 0.44145377549839959
15 5 0.50000001657010651 0.17657242553120195 0.44033134129226498
15 5 0.50000002990447734 0.30416411440887331 0.44456004376499875
15 5 0.5000000612639609 0.43926637636668725 0.47172532730938826
15 5 0.50000008098550897 0.54960622601915243 0.43654818759423908
15 5 0.50000005224655242 0.67539684282243362 0.44256462719591166
15 5 0.50000002330171234 0.80123967927867135 0.4416723907172842
15 5 0.50000001464712607 0.92638437964698761 0.44135279945782857
15 5 0.59087316802082024 0.051454008461536568 0.44152908579368144
15 5 0.59081647859913566 0.17647469910316829 0.44051381160642888
15 5 0.59064131618195115 0.3029691418690903 0.44290569343992447
15 5 0.59155915287222693 0.42500117994779274 0.44105957642081089
15 5 0.59074540609278137 0.55181591679819453 0.44014355013160811
15 5 0.59061213164805904 0.67562152270699172 0.44247002716370321
15 5 0.59080563002979902 0.80123740263837229 0.44165816031859795
15 5 0.59088746547482174 0.92636278912280012 0.44134568769975274
15 5 0.68182038915921617 0.051432466265014201 0.44157985118966264
15 5 0.68175072571091799 0.17640316684803609 0.44097959021252531
15 5 0.68187517752081428 0.30178736543871443 0.44203208379621844
15 5 0.68109382946577779 0.42561283676469847 0.44102345569529522
15 5 0.68187238490752955 0.55177246095015908 0.44135327125471846
15 5 0.68147434547452512 0.67594640443302423 0.4419758169835703
15 5 0.68170387892326822 0.80128602623861034 0.4415907045609575
15 5 0.68182117655804808 0.92634083725527783 0.44138794849785878
15 5 0.77275734284819109 0.051443907462619086 0.44156373913597929
15 5 0.77272353798631632 0.17638230367365942 0.44127858287071114
15 5 0.77264853951232126 0.30149586169065684 0.44157544857475661
15 5 0.77252586013561064 0.42629321303424011 0.44117438769171746
15 5 0.77274339789008895 0.55151226008980447 0.44165009919761156
15 5 0.7726324912479331 0.67635353951967125 0.44139145762878756
15 5 0.77268354348638824 0.80140133477337949 0.44155419961611431
15 5 0.77276050884049119 0.92636365947869503 0.44143055997762803
15 5 0.86367180195834625 0.051443574713732718 0.44150425064169779
15 5 0.86364513276141441 0.17638698964005761 0.44131875187503922
15 5 0.86359937568942957 0.30141345868598785 0.44156384079212374
15 5 0.86352197885399118 0.4263287364704329 0.44131690065434642
15 5 0.86359005272899636 0.55140478763162093 0.44167223912292958
15 5 0.86361901557439658 0.67641036170555924 0.44134688934346356
15 5 0.86363939308411541 0.80147263311695127 0.44156347131524931
15 5 0.86366182717346796 0.9263787879202775 0.44146897946232661
15 5 0.95455383791895754 0.051434306259085044 0.44148530653067175
15 5 0.95455335342152392 0.17638193167063926 0.44132065017188504
15 5 0.9545346953346775 0.30140521410211463 0.44156418893640159
15 5 0.95451006127898907 0.42633530415425369 0.441369321618929
15 5 0.95452424081115228 0.55142772032617293 0.44163047350430129
15 5 0.95454538098686581 0.67641918937816747 0.44133418016341097
15 5 0.95455038698409234 0.80148104318368607 0.44158650569678087
15 5 0.95455530717046322 0.92638340821848075 0.44143417689779307
