14	4	0.050000	0.150000	0.050000
14	4	0.000000	0.000000	0.100000
14	4	0.050000	0.050000	0.150000
14	4	0.000000	0.100000	0.000000
14	4	0.150000	0.150000	0.150000
14	4	0.100000	0.000000	0.000000
14	4	0.150000	0.050000	0.050000
14	4	0.100000	0.100000	0.100000
14	4	0.050000	0.150000	0.250000
14	4	0.000000	0.000000	0.300000
14	4	0.050000	0.050000	0.350000
14	4	0.000000	0.100000	0.200000
14	4	0.150000	0.150000	0.350000
14	4	0.100000	0.000000	0.200000
14	4	0.150000	0.050000	0.250000
14	4	0.100000	0.100000	0.300000
14	4	0.050000	0.150000	0.450000
14	4	0.000000	0.000000	0.500000
14	4	0.050000	0.050000	0.550000
14	4	0.000000	0.100000	0.400000
14	4	0.150000	0.150000	0.550000
14	4	0.100000	0.000000	0.400000
14	4	0.150000	0.050000	0.450000
14	4	0.100000	0.100000	0.500000
14	4	0.050000	0.150000	0.650000
14	4	0.000000	0.000000	0.700000
14	4	0.050000	0.050000	0.750000
14	4	0.000000	0.100000	0.600000
14	4	0.150000	0.150000	0.750000
14	4	0.100000	0.000000	0.600000
14	4	0.150000	0.050000	0.650000
14	4	0.100000	0.100000	0.700000
14	4	0.050000	0.150000	0.850000
14	4	0.000000	0.000000	0.900000
14	4	0.050000	0.050000	0.950000
14	4	0.000000	0.100000	0.800000
14	4	0.150000	0.150000	0.950000
14	4	0.100000	0.000000	0.800000
14	4	0.150000	0.050000	0.850000
14	4	0.100000	0.100000	0.900000
14	4	0.050000	0.350000	0.050000
14	4	0.000000	0.200000	0.100000
14	4	0.050000	0.250000	0.150000
14	4	0.000000	0.300000	0.000000
14	4	0.150000	0.350000	0.150000
14	4	0.100000	0.200000	0.000000
14	4	0.150000	0.250000	0.050000
14	4	0.100000	0.300000	0.100000
14	4	0.050000	0.350000	0.250000
14	4	0.000000	0.200000	0.300000
14	4	0.050000	0.250000	0.350000
14	4	0.000000	0.300000	0.200000
14	4	0.150000	0.350000	0.350000
14	4	0.100000	0.200000	0.200000
14	4	0.150000	0.250000	0.250000
14	4	0.100000	0.300000	0.300000
14	4	0.050000	0.350000	0.450000
14	4	0.000000	0.200000	0.500000
14	4	0.050000	0.250000	0.550000
14	4	0.000000	0.300000	0.400000
14	4	0.150000	0.350000	0.550000
14	4	0.100000	0.200000	0.400000
14	4	0.150000	0.250000	0.450000
14	4	0.100000	0.300000	0.500000
14	4	0.050000	0.350000	0.650000
14	4	0.000000	0.200000	0.700000
14	4	0.050000	0.250000	0.750000
14	4	0.000000	0.300000	0.600000
14	4	0.150000	0.350000	0.750000
14	4	0.100000	0.200000	0.600000
14	4	0.150000	0.250000	0.650000
14	4	0.100000	0.300000	0.700000
14	4	0.050000	0.350000	0.850000
14	4	0.000000	0.200000	0.900000
14	4	0.050000	0.250000	0.950000
14	4	0.000000	0.300000	0.800000
14	4	0.150000	0.350000	0.950000
14	4	0.100000	0.200000	0.800000
14	4	0.150000	0.250000	0.850000
14	4	0.100000	0.300000	0.900000
14	4	0.050000	0.550000	0.050000
14	4	0.000000	0.400000	0.100000
14	4	0.050000	0.450000	0.150000
14	4	0.000000	0.500000	0.000000
14	4	0.150000	0.550000	0.150000
14	4	0.100000	0.400000	0.000000
14	4	0.150000	0.450000	0.050000
14	4	0.100000	0.500000	0.100000
14	4	0.050000	0.550000	0.250000
14	4	0.000000	0.400000	0.300000
14	4	0.050000	0.450000	0.350000
14	4	0.000000	0.500000	0.200000
14	4	0.150000	0.550000	0.350000
14	4	0.100000	0.400000	0.200000
14	4	0.150000	0.450000	0.250000
14	4	0.100000	0.500000	0.300000
14	4	0.050000	0.550000	0.450000
14	4	0.000000	0.400000	0.500000
14	4	0.050000	0.450000	0.550000
14	4	0.000000	0.500000	0.400000
14	4	0.150000	0.550000	0.550000
14	4	0.100000	0.400000	0.400000
14	4	0.150000	0.450000	0.450000
14	4	0.100000	0.500000	0.500000
14	4	0.050000	0.550000	0.650000
14	4	0.000000	0.400000	0.700000
14	4	0.050000	0.450000	0.750000
14	4	0.000000	0.500000	0.600000
14	4	0.150000	0.550000	0.750000
14	4	0.100000	0.400000	0.600000
14	4	0.150000	0.450000	0.650000
14	4	0.100000	0.500000	0.700000
14	4	0.050000	0.550000	0.850000
14	4	0.000000	0.400000	0.900000
14	4	0.050000	0.450000	0.950000
14	4	0.000000	0.500000	0.800000
14	4	0.150000	0.550000	0.950000
14	4	0.100000	0.400000	0.800000
14	4	0.150000	0.450000	0.850000
14	4	0.100000	0.500000	0.900000
14	4	0.050000	0.750000	0.050000
14	4	0.000000	0.600000	0.100000
14	4	0.050000	0.650000	0.150000
14	4	0.000000	0.700000	0.000000
14	4	0.150000	0.750000	0.150000
14	4	0.100000	0.600000	0.000000
14	4	0.150000	0.650000	0.050000
14	4	0.100000	0.700000	0.100000
14	4	0.050000	0.750000	0.250000
14	4	0.000000	0.600000	0.300000
14	4	0.050000	0.650000	0.350000
14	4	0.000000	0.700000	0.200000
14	4	0.150000	0.750000	0.350000
14	4	0.100000	0.600000	0.200000
14	4	0.150000	0.650000	0.250000
14	4	0.100000	0.700000	0.300000
14	4	0.050000	0.750000	0.450000
14	4	0.000000	0.600000	0.500000
14	4	0.050000	0.650000	0.550000
14	4	0.000000	0.700000	0.400000
14	4	0.150000	0.750000	0.550000
14	4	0.100000	0.600000	0.400000
14	4	0.150000	0.650000	0.450000
14	4	0.100000	0.700000	0.500000
14	4	0.050000	0.750000	0.650000
14	4	0.000000	0.600000	0.700000
14	4	0.050000	0.650000	0.750000
14	4	0.000000	0.700000	0.600000
14	4	0.150000	0.750000	0.750000
14	4	0.100000	0.600000	0.600000
14	4	0.150000	0.650000	0.650000
14	4	0.100000	0.700000	0.700000
14	4	0.050000	0.750000	0.850000
14	4	0.000000	0.600000	0.900000
14	4	0.050000	0.650000	0.950000
14	4	0.000000	0.700000	0.800000
14	4	0.150000	0.750000	0.950000
14	4	0.100000	0.600000	0.800000
14	4	0.150000	0.650000	0.850000
14	4	0.100000	0.700000	0.900000
14	4	0.050000	0.950000	0.050000
14	4	0.000000	0.800000	0.100000
14	4	0.050000	0.850000	0.150000
14	4	0.000000	0.900000	0.000000
14	4	0.150000	0.950000	0.150000
14	4	0.100000	0.800000	0.000000
14	4	0.150000	0.850000	0.050000
14	4	0.100000	0.900000	0.100000
14	4	0.050000	0.950000	0.250000
14	4	0.000000	0.800000	0.300000
14	4	0.050000	0.850000	0.350000
14	4	0.000000	0.900000	0.200000
14	4	0.150000	0.950000	0.350000
14	4	0.100000	0.800000	0.200000
14	4	0.150000	0.850000	0.250000
14	4	0.100000	0.900000	0.300000
14	4	0.050000	0.950000	0.450000
14	4	0.000000	0.800000	0.500000
14	4	0.050000	0.850000	0.550000
14	4	0.000000	0.900000	0.400000
14	4	0.150000	0.950000	0.550000
14	4	0.100000	0.800000	0.400000
14	4	0.150000	0.850000	0.450000
14	4	0.100000	0.900000	0.500000
14	4	0.050000	0.950000	0.650000
14	4	0.000000	0.800000	0.700000
14	4	0.050000	0.850000	0.750000
14	4	0.000000	0.900000	0.600000
14	4	0.150000	0.950000	0.750000
14	4	0.100000	0.800000	0.600000
14	4	0.150000	0.850000	0.650000
14	4	0.100000	0.900000	0.700000
14	4	0.050000	0.950000	0.850000
14	4	0.000000	0.800000	0.900000
14	4	0.050000	0.850000	0.950000
14	4	0.000000	0.900000	0.800000
14	4	0.150000	0.950000	0.950000
14	4	0.100000	0.800000	0.800000
14	4	0.150000	0.850000	0.850000
14	4	0.100000	0.900000	0.900000
14	4	0.250000	0.150000	0.050000
14	4	0.200000	0.000000	0.100000
14	4	0.250000	0.050000	0.150000
14	4	0.200000	0.100000	0.000000
14	4	0.350000	0.150000	0.150000
14	4	0.300000	0.000000	0.000000
14	4	0.350000	0.050000	0.050000
14	4	0.300000	0.100000	0.100000
14	4	0.250000	0.150000	0.250000
14	4	0.200000	0.000000	0.300000
14	4	0.250000	0.050000	0.350000
14	4	0.200000	0.100000	0.200000
14	4	0.350000	0.150000	0.350000
14	4	0.300000	0.000000	0.200000
14	4	0.350000	0.050000	0.250000
14	4	0.300000	0.100000	0.300000
14	4	0.250000	0.150000	0.450000
14	4	0.200000	0.000000	0.500000
14	4	0.250000	0.050000	0.550000
14	4	0.200000	0.100000	0.400000
14	4	0.350000	0.150000	0.550000
14	4	0.300000	0.000000	0.400000
14	4	0.350000	0.050000	0.450000
14	4	0.300000	0.100000	0.500000
14	4	0.250000	0.150000	0.650000
14	4	0.200000	0.000000	0.700000
14	4	0.250000	0.050000	0.750000
14	4	0.200000	0.100000	0.600000
14	4	0.350000	0.150000	0.750000
14	4	0.300000	0.000000	0.600000
14	4	0.350000	0.050000	0.650000
14	4	0.300000	0.100000	0.700000
14	4	0.250000	0.150000	0.850000
14	4	0.200000	0.000000	0.900000
14	4	0.250000	0.050000	0.950000
14	4	0.200000	0.100000	0.800000
14	4	0.350000	0.150000	0.950000
14	4	0.300000	0.000000	0.800000
14	4	0.350000	0.050000	0.850000
14	4	0.300000	0.100000	0.900000
14	4	0.250000	0.350000	0.050000
14	4	0.200000	0.200000	0.100000
14	4	0.250000	0.250000	0.150000
14	4	0.200000	0.300000	0.000000
14	4	0.350000	0.350000	0.150000
14	4	0.300000	0.200000	0.000000
14	4	0.350000	0.250000	0.050000
14	4	0.300000	0.300000	0.100000
14	4	0.250000	0.350000	0.250000
14	4	0.200000	0.200000	0.300000
14	4	0.250000	0.250000	0.350000
14	4	0.200000	0.300000	0.200000
14	4	0.350000	0.350000	0.350000
14	4	0.300000	0.200000	0.200000
14	4	0.350000	0.250000	0.250000
14	4	0.300000	0.300000	0.300000
14	4	0.250000	0.350000	0.450000
14	4	0.200000	0.200000	0.500000
14	4	0.250000	0.250000	0.550000
14	4	0.200000	0.300000	0.400000
14	4	0.350000	0.350000	0.550000
14	4	0.300000	0.200000	0.400000
14	4	0.350000	0.250000	0.450000
14	4	0.300000	0.300000	0.500000
14	4	0.250000	0.350000	0.650000
14	4	0.200000	0.200000	0.700000
14	4	0.250000	0.250000	0.750000
14	4	0.200000	0.300000	0.600000
14	4	0.350000	0.350000	0.750000
14	4	0.300000	0.200000	0.600000
14	4	0.350000	0.250000	0.650000
14	4	0.300000	0.300000	0.700000
14	4	0.250000	0.350000	0.850000
14	4	0.200000	0.200000	0.900000
14	4	0.250000	0.250000	0.950000
14	4	0.200000	0.300000	0.800000
14	4	0.350000	0.350000	0.950000
14	4	0.300000	0.200000	0.800000
14	4	0.350000	0.250000	0.850000
14	4	0.300000	0.300000	0.900000
14	4	0.250000	0.550000	0.050000
14	4	0.200000	0.400000	0.100000
14	4	0.250000	0.450000	0.150000
14	4	0.200000	0.500000	0.000000
14	4	0.350000	0.550000	0.150000
14	4	0.300000	0.400000	0.000000
14	4	0.350000	0.450000	0.050000
14	4	0.300000	0.500000	0.100000
14	4	0.250000	0.550000	0.250000
14	4	0.200000	0.400000	0.300000
14	4	0.250000	0.450000	0.350000
14	4	0.200000	0.500000	0.200000
14	4	0.350000	0.550000	0.350000
14	4	0.300000	0.400000	0.200000
14	4	0.350000	0.450000	0.250000
14	4	0.300000	0.500000	0.300000
14	4	0.250000	0.550000	0.450000
14	4	0.200000	0.400000	0.500000
14	4	0.250000	0.450000	0.550000
14	4	0.200000	0.500000	0.400000
14	4	0.350000	0.550000	0.550000
14	4	0.300000	0.400000	0.400000
14	4	0.350000	0.450000	0.450000
14	4	0.300000	0.500000	0.500000
14	4	0.250000	0.550000	0.650000
14	4	0.200000	0.400000	0.700000
14	4	0.250000	0.450000	0.750000
14	4	0.200000	0.500000	0.600000
14	4	0.350000	0.550000	0.750000
14	4	0.300000	0.400000	0.600000
14	4	0.350000	0.450000	0.650000
14	4	0.300000	0.500000	0.700000
14	4	0.250000	0.550000	0.850000
14	4	0.200000	0.400000	0.900000
14	4	0.250000	0.450000	0.950000
14	4	0.200000	0.500000	0.800000
14	4	0.350000	0.550000	0.950000
14	4	0.300000	0.400000	0.800000
14	4	0.350000	0.450000	0.850000
14	4	0.300000	0.500000	0.900000
14	4	0.250000	0.750000	0.050000
14	4	0.200000	0.600000	0.100000
14	4	0.250000	0.650000	0.150000
14	4	0.200000	0.700000	0.000000
14	4	0.350000	0.750000	0.150000
14	4	0.300000	0.600000	0.000000
14	4	0.350000	0.650000	0.050000
14	4	0.300000	0.700000	0.100000
14	4	0.250000	0.750000	0.250000
14	4	0.200000	0.600000	0.300000
14	4	0.250000	0.650000	0.350000
14	4	0.200000	0.700000	0.200000
14	4	0.350000	0.750000	0.350000
14	4	0.300000	0.600000	0.200000
14	4	0.350000	0.650000	0.250000
14	4	0.300000	0.700000	0.300000
14	4	0.250000	0.750000	0.450000
14	4	0.200000	0.600000	0.500000
14	4	0.250000	0.650000	0.550000
14	4	0.200000	0.700000	0.400000
14	4	0.350000	0.750000	0.550000
14	4	0.300000	0.600000	0.400000
14	4	0.350000	0.650000	0.450000
14	4	0.300000	0.700000	0.500000
14	4	0.250000	0.750000	0.650000
14	4	0.200000	0.600000	0.700000
14	4	0.250000	0.650000	0.750000
14	4	0.200000	0.700000	0.600000
14	4	0.350000	0.750000	0.750000
14	4	0.300000	0.600000	0.600000
14	4	0.350000	0.650000	0.650000
14	4	0.300000	0.700000	0.700000
14	4	0.250000	0.750000	0.850000
14	4	0.200000	0.600000	0.900000
14	4	0.250000	0.650000	0.950000
14	4	0.200000	0.700000	0.800000
14	4	0.350000	0.750000	0.950000
14	4	0.300000	0.600000	0.800000
14	4	0.350000	0.650000	0.850000
14	4	0.300000	0.700000	0.900000
14	4	0.250000	0.950000	0.050000
14	4	0.200000	0.800000	0.100000
14	4	0.250000	0.850000	0.150000
14	4	0.200000	0.900000	0.000000
14	4	0.350000	0.950000	0.150000
14	4	0.300000	0.800000	0.000000
14	4	0.350000	0.850000	0.050000
14	4	0.300000	0.900000	0.100000
14	4	0.250000	0.950000	0.250000
14	4	0.200000	0.800000	0.300000
14	4	0.250000	0.850000	0.350000
14	4	0.200000	0.900000	0.200000
14	4	0.350000	0.950000	0.350000
14	4	0.300000	0.800000	0.200000
14	4	0.350000	0.850000	0.250000
14	4	0.300000	0.900000	0.300000
14	4	0.250000	0.950000	0.450000
14	4	0.200000	0.800000	0.500000
14	4	0.250000	0.850000	0.550000
14	4	0.200000	0.900000	0.400000
14	4	0.350000	0.950000	0.550000
14	4	0.300000	0.800000	0.400000
14	4	0.350000	0.850000	0.450000
14	4	0.300000	0.900000	0.500000
14	4	0.250000	0.950000	0.650000
14	4	0.200000	0.800000	0.700000
14	4	0.250000	0.850000	0.750000
14	4	0.200000	0.900000	0.600000
14	4	0.350000	0.950000	0.750000
14	4	0.300000	0.800000	0.600000
14	4	0.350000	0.850000	0.650000
14	4	0.300000	0.900000	0.700000
14	4	0.250000	0.950000	0.850000
14	4	0.200000	0.800000	0.900000
14	4	0.250000	0.850000	0.950000
14	4	0.200000	0.900000	0.800000
14	4	0.350000	0.950000	0.950000
14	4	0.300000	0.800000	0.800000
14	4	0.350000	0.850000	0.850000
14	4	0.300000	0.900000	0.900000
14	4	0.450000	0.150000	0.050000
14	4	0.400000	0.000000	0.100000
14	4	0.450000	0.050000	0.150000
14	4	0.400000	0.100000	0.000000
14	4	0.550000	0.150000	0.150000
14	4	0.500000	0.000000	0.000000
14	4	0.550000	0.050000	0.050000
14	4	0.500000	0.100000	0.100000
14	4	0.450000	0.150000	0.250000
14	4	0.400000	0.000000	0.300000
14	4	0.450000	0.050000	0.350000
14	4	0.400000	0.100000	0.200000
14	4	0.550000	0.150000	0.350000
14	4	0.500000	0.000000	0.200000
14	4	0.550000	0.050000	0.250000
14	4	0.500000	0.100000	0.300000
14	4	0.450000	0.150000	0.450000
14	4	0.400000	0.000000	0.500000
14	4	0.450000	0.050000	0.550000
14	4	0.400000	0.100000	0.400000
14	4	0.550000	0.150000	0.550000
14	4	0.500000	0.000000	0.400000
14	4	0.550000	0.050000	0.450000
14	4	0.500000	0.100000	0.500000
14	4	0.450000	0.150000	0.650000
14	4	0.400000	0.000000	0.700000
14	4	0.450000	0.050000	0.750000
14	4	0.400000	0.100000	0.600000
14	4	0.550000	0.150000	0.750000
14	4	0.500000	0.000000	0.600000
14	4	0.550000	0.050000	0.650000
14	4	0.500000	0.100000	0.700000
14	4	0.450000	0.150000	0.850000
14	4	0.400000	0.000000	0.900000
14	4	0.450000	0.050000	0.950000
14	4	0.400000	0.100000	0.800000
14	4	0.550000	0.150000	0.950000
14	4	0.500000	0.000000	0.800000
14	4	0.550000	0.050000	0.850000
14	4	0.500000	0.100000	0.900000
14	4	0.450000	0.350000	0.050000
14	4	0.400000	0.200000	0.100000
14	4	0.450000	0.250000	0.150000
14	4	0.400000	0.300000	0.000000
14	4	0.550000	0.350000	0.150000
14	4	0.500000	0.200000	0.000000
14	4	0.550000	0.250000	0.050000
14	4	0.500000	0.300000	0.100000
14	4	0.450000	0.350000	0.250000
14	4	0.400000	0.200000	0.300000
14	4	0.450000	0.250000	0.350000
14	4	0.400000	0.300000	0.200000
14	4	0.550000	0.350000	0.350000
14	4	0.500000	0.200000	0.200000
14	4	0.550000	0.250000	0.250000
14	4	0.500000	0.300000	0.300000
14	4	0.450000	0.350000	0.450000
14	4	0.400000	0.200000	0.500000
14	4	0.450000	0.250000	0.550000
14	4	0.400000	0.300000	0.400000
14	4	0.550000	0.350000	0.550000
14	4	0.500000	0.200000	0.400000
14	4	0.550000	0.250000	0.450000
14	4	0.500000	0.300000	0.500000
14	4	0.450000	0.350000	0.650000
14	4	0.400000	0.200000	0.700000
14	4	0.450000	0.250000	0.750000
14	4	0.400000	0.300000	0.600000
14	4	0.550000	0.350000	0.750000
14	4	0.500000	0.200000	0.600000
14	4	0.550000	0.250000	0.650000
14	4	0.500000	0.300000	0.700000
14	4	0.450000	0.350000	0.850000
14	4	0.400000	0.200000	0.900000
14	4	0.450000	0.250000	0.950000
14	4	0.400000	0.300000	0.800000
14	4	0.550000	0.350000	0.950000
14	4	0.500000	0.200000	0.800000
14	4	0.550000	0.250000	0.850000
14	4	0.500000	0.300000	0.900000
14	4	0.450000	0.550000	0.050000
14	4	0.400000	0.400000	0.100000
14	4	0.450000	0.450000	0.150000
14	4	0.400000	0.500000	0.000000
14	4	0.550000	0.550000	0.150000
14	4	0.500000	0.400000	0.000000
14	4	0.550000	0.450000	0.050000
14	4	0.500000	0.500000	0.100000
14	4	0.450000	0.550000	0.250000
14	4	0.400000	0.400000	0.300000
14	4	0.450000	0.450000	0.350000
14	4	0.400000	0.500000	0.200000
14	4	0.550000	0.550000	0.350000
14	4	0.500000	0.400000	0.200000
14	4	0.550000	0.450000	0.250000
14	4	0.500000	0.500000	0.300000
14	4	0.450000	0.550000	0.450000
14	4	0.400000	0.400000	0.500000
14	4	0.450000	0.450000	0.550000
14	4	0.400000	0.500000	0.400000
14	4	0.550000	0.550000	0.550000
14	4	0.500000	0.400000	0.400000
14	4	0.550000	0.450000	0.450000
14	4	0.500000	0.500000	0.500000
14	4	0.450000	0.550000	0.650000
14	4	0.400000	0.400000	0.700000
14	4	0.450000	0.450000	0.750000
14	4	0.400000	0.500000	0.600000
14	4	0.550000	0.550000	0.750000
14	4	0.500000	0.400000	0.600000
14	4	0.550000	0.450000	0.650000
14	4	0.500000	0.500000	0.700000
14	4	0.450000	0.550000	0.850000
14	4	0.400000	0.400000	0.900000
14	4	0.450000	0.450000	0.950000
14	4	0.400000	0.500000	0.800000
14	4	0.550000	0.550000	0.950000
14	4	0.500000	0.400000	0.800000
14	4	0.550000	0.450000	0.850000
14	4	0.500000	0.500000	0.900000
14	4	0.450000	0.750000	0.050000
14	4	0.400000	0.600000	0.100000
14	4	0.450000	0.650000	0.150000
14	4	0.400000	0.700000	0.000000
14	4	0.550000	0.750000	0.150000
14	4	0.500000	0.600000	0.000000
14	4	0.550000	0.650000	0.050000
14	4	0.500000	0.700000	0.100000
14	4	0.450000	0.750000	0.250000
14	4	0.400000	0.600000	0.300000
14	4	0.450000	0.650000	0.350000
14	4	0.400000	0.700000	0.200000
14	4	0.550000	0.750000	0.350000
14	4	0.500000	0.600000	0.200000
14	4	0.550000	0.650000	0.250000
14	4	0.500000	0.700000	0.300000
14	4	0.450000	0.750000	0.450000
14	4	0.400000	0.600000	0.500000
14	4	0.450000	0.650000	0.550000
14	4	0.400000	0.700000	0.400000
14	4	0.550000	0.750000	0.550000
14	4	0.500000	0.600000	0.400000
14	4	0.550000	0.650000	0.450000
14	4	0.500000	0.700000	0.500000
14	4	0.450000	0.750000	0.650000
14	4	0.400000	0.600000	0.700000
14	4	0.450000	0.650000	0.750000
14	4	0.400000	0.700000	0.600000
14	4	0.550000	0.750000	0.750000
14	4	0.500000	0.600000	0.600000
14	4	0.550000	0.650000	0.650000
14	4	0.500000	0.700000	0.700000
14	4	0.450000	0.750000	0.850000
14	4	0.400000	0.600000	0.900000
14	4	0.450000	0.650000	0.950000
14	4	0.400000	0.700000	0.800000
14	4	0.550000	0.750000	0.950000
14	4	0.500000	0.600000	0.800000
14	4	0.550000	0.650000	0.850000
14	4	0.500000	0.700000	0.900000
14	4	0.450000	0.950000	0.050000
14	4	0.400000	0.800000	0.100000
14	4	0.450000	0.850000	0.150000
14	4	0.400000	0.900000	0.000000
14	4	0.550000	0.950000	0.150000
14	4	0.500000	0.800000	0.000000
14	4	0.550000	0.850000	0.050000
14	4	0.500000	0.900000	0.100000
14	4	0.450000	0.950000	0.250000
14	4	0.400000	0.800000	0.300000
14	4	0.450000	0.850000	0.350000
14	4	0.400000	0.900000	0.200000
14	4	0.550000	0.950000	0.350000
14	4	0.500000	0.800000	0.200000
14	4	0.550000	0.850000	0.250000
14	4	0.500000	0.900000	0.300000
14	4	0.450000	0.950000	0.450000
14	4	0.400000	0.800000	0.500000
14	4	0.450000	0.850000	0.550000
14	4	0.400000	0.900000	0.400000
14	4	0.550000	0.950000	0.550000
14	4	0.500000	0.800000	0.400000
14	4	0.550000	0.850000	0.450000
14	4	0.500000	0.900000	0.500000
14	4	0.450000	0.950000	0.650000
14	4	0.400000	0.800000	0.700000
14	4	0.450000	0.850000	0.750000
14	4	0.400000	0.900000	0.600000
14	4	0.550000	0.950000	0.750000
14	4	0.500000	0.800000	0.600000
14	4	0.550000	0.850000	0.650000
14	4	0.500000	0.900000	0.700000
14	4	0.450000	0.950000	0.850000
14	4	0.400000	0.800000	0.900000
14	4	0.450000	0.850000	0.950000
14	4	0.400000	0.900000	0.800000
14	4	0.550000	0.950000	0.950000
14	4	0.500000	0.800000	0.800000
14	4	0.550000	0.850000	0.850000
14	4	0.500000	0.900000	0.900000
14	4	0.650000	0.150000	0.050000
14	4	0.600000	0.000000	0.100000
14	4	0.650000	0.050000	0.150000
14	4	0.600000	0.100000	0.000000
14	4	0.750000	0.150000	0.150000
14	4	0.700000	0.000000	0.000000
14	4	0.750000	0.050000	0.050000
14	4	0.700000	0.100000	0.100000
14	4	0.650000	0.150000	0.250000
14	4	0.600000	0.000000	0.300000
14	4	0.650000	0.050000	0.350000
14	4	0.600000	0.100000	0.200000
14	4	0.750000	0.150000	0.350000
14	4	0.700000	0.000000	0.200000
14	4	0.750000	0.050000	0.250000
14	4	0.700000	0.100000	0.300000
14	4	0.650000	0.150000	0.450000
14	4	0.600000	0.000000	0.500000
14	4	0.650000	0.050000	0.550000
14	4	0.600000	0.100000	0.400000
14	4	0.750000	0.150000	0.550000
14	4	0.700000	0.000000	0.400000
14	4	0.750000	0.050000	0.450000
14	4	0.700000	0.100000	0.500000
14	4	0.650000	0.150000	0.650000
14	4	0.600000	0.000000	0.700000
14	4	0.650000	0.050000	0.750000
14	4	0.600000	0.100000	0.600000
14	4	0.750000	0.150000	0.750000
14	4	0.700000	0.000000	0.600000
14	4	0.750000	0.050000	0.650000
14	4	0.700000	0.100000	0.700000
14	4	0.650000	0.150000	0.850000
14	4	0.600000	0.000000	0.900000
14	4	0.650000	0.050000	0.950000
14	4	0.600000	0.100000	0.800000
14	4	0.750000	0.150000	0.950000
14	4	0.700000	0.000000	0.800000
14	4	0.750000	0.050000	0.850000
14	4	0.700000	0.100000	0.900000
14	4	0.650000	0.350000	0.050000
14	4	0.600000	0.200000	0.100000
14	4	0.650000	0.250000	0.150000
14	4	0.600000	0.300000	0.000000
14	4	0.750000	0.350000	0.150000
14	4	0.700000	0.200000	0.000000
14	4	0.750000	0.250000	0.050000
14	4	0.700000	0.300000	0.100000
14	4	0.650000	0.350000	0.250000
14	4	0.600000	0.200000	0.300000
14	4	0.650000	0.250000	0.350000
14	4	0.600000	0.300000	0.200000
14	4	0.750000	0.350000	0.350000
14	4	0.700000	0.200000	0.200000
14	4	0.750000	0.250000	0.250000
14	4	0.700000	0.300000	0.300000
14	4	0.650000	0.350000	0.450000
14	4	0.600000	0.200000	0.500000
14	4	0.650000	0.250000	0.550000
14	4	0.600000	0.300000	0.400000
14	4	0.750000	0.350000	0.550000
14	4	0.700000	0.200000	0.400000
14	4	0.750000	0.250000	0.450000
14	4	0.700000	0.300000	0.500000
14	4	0.650000	0.350000	0.650000
14	4	0.600000	0.200000	0.700000
14	4	0.650000	0.250000	0.750000
14	4	0.600000	0.300000	0.600000
14	4	0.750000	0.350000	0.750000
14	4	0.700000	0.200000	0.600000
14	4	0.750000	0.250000	0.650000
14	4	0.700000	0.300000	0.700000
14	4	0.650000	0.350000	0.850000
14	4	0.600000	0.200000	0.900000
14	4	0.650000	0.250000	0.950000
14	4	0.600000	0.300000	0.800000
14	4	0.750000	0.350000	0.950000
14	4	0.700000	0.200000	0.800000
14	4	0.750000	0.250000	0.850000
14	4	0.700000	0.300000	0.900000
14	4	0.650000	0.550000	0.050000
14	4	0.600000	0.400000	0.100000
14	4	0.650000	0.450000	0.150000
14	4	0.600000	0.500000	0.000000
14	4	0.750000	0.550000	0.150000
14	4	0.700000	0.400000	0.000000
14	4	0.750000	0.450000	0.050000
14	4	0.700000	0.500000	0.100000
14	4	0.650000	0.550000	0.250000
14	4	0.600000	0.400000	0.300000
14	4	0.650000	0.450000	0.350000
14	4	0.600000	0.500000	0.200000
14	4	0.750000	0.550000	0.350000
14	4	0.700000	0.400000	0.200000
14	4	0.750000	0.450000	0.250000
14	4	0.700000	0.500000	0.300000
14	4	0.650000	0.550000	0.450000
14	4	0.600000	0.400000	0.500000
14	4	0.650000	0.450000	0.550000
14	4	0.600000	0.500000	0.400000
14	4	0.750000	0.550000	0.550000
14	4	0.700000	0.400000	0.400000
14	4	0.750000	0.450000	0.450000
14	4	0.700000	0.500000	0.500000
14	4	0.650000	0.550000	0.650000
14	4	0.600000	0.400000	0.700000
14	4	0.650000	0.450000	0.750000
14	4	0.600000	0.500000	0.600000
14	4	0.750000	0.550000	0.750000
14	4	0.700000	0.400000	0.600000
14	4	0.750000	0.450000	0.650000
14	4	0.700000	0.500000	0.700000
14	4	0.650000	0.550000	0.850000
14	4	0.600000	0.400000	0.900000
14	4	0.650000	0.450000	0.950000
14	4	0.600000	0.500000	0.800000
14	4	0.750000	0.550000	0.950000
14	4	0.700000	0.400000	0.800000
14	4	0.750000	0.450000	0.850000
14	4	0.700000	0.500000	0.900000
14	4	0.650000	0.750000	0.050000
14	4	0.600000	0.600000	0.100000
14	4	0.650000	0.650000	0.150000
14	4	0.600000	0.700000	0.000000
14	4	0.750000	0.750000	0.150000
14	4	0.700000	0.600000	0.000000
14	4	0.750000	0.650000	0.050000
14	4	0.700000	0.700000	0.100000
14	4	0.650000	0.750000	0.250000
14	4	0.600000	0.600000	0.300000
14	4	0.650000	0.650000	0.350000
14	4	0.600000	0.700000	0.200000
14	4	0.750000	0.750000	0.350000
14	4	0.700000	0.600000	0.200000
14	4	0.750000	0.650000	0.250000
14	4	0.700000	0.700000	0.300000
14	4	0.650000	0.750000	0.450000
14	4	0.600000	0.600000	0.500000
14	4	0.650000	0.650000	0.550000
14	4	0.600000	0.700000	0.400000
14	4	0.750000	0.750000	0.550000
14	4	0.700000	0.600000	0.400000
14	4	0.750000	0.650000	0.450000
14	4	0.700000	0.700000	0.500000
14	4	0.650000	0.750000	0.650000
14	4	0.600000	0.600000	0.700000
14	4	0.650000	0.650000	0.750000
14	4	0.600000	0.700000	0.600000
14	4	0.750000	0.750000	0.750000
14	4	0.700000	0.600000	0.600000
14	4	0.750000	0.650000	0.650000
14	4	0.700000	0.700000	0.700000
14	4	0.650000	0.750000	0.850000
14	4	0.600000	0.600000	0.900000
14	4	0.650000	0.650000	0.950000
14	4	0.600000	0.700000	0.800000
14	4	0.750000	0.750000	0.950000
14	4	0.700000	0.600000	0.800000
14	4	0.750000	0.650000	0.850000
14	4	0.700000	0.700000	0.900000
14	4	0.650000	0.950000	0.050000
14	4	0.600000	0.800000	0.100000
14	4	0.650000	0.850000	0.150000
14	4	0.600000	0.900000	0.000000
14	4	0.750000	0.950000	0.150000
14	4	0.700000	0.800000	0.000000
14	4	0.750000	0.850000	0.050000
14	4	0.700000	0.900000	0.100000
14	4	0.650000	0.950000	0.250000
14	4	0.600000	0.800000	0.300000
14	4	0.650000	0.850000	0.350000
14	4	0.600000	0.900000	0.200000
14	4	0.750000	0.950000	0.350000
14	4	0.700000	0.800000	0.200000
14	4	0.750000	0.850000	0.250000
14	4	0.700000	0.900000	0.300000
14	4	0.650000	0.950000	0.450000
14	4	0.600000	0.800000	0.500000
14	4	0.650000	0.850000	0.550000
14	4	0.600000	0.900000	0.400000
14	4	0.750000	0.950000	0.550000
14	4	0.700000	0.800000	0.400000
14	4	0.750000	0.850000	0.450000
14	4	0.700000	0.900000	0.500000
14	4	0.650000	0.950000	0.650000
14	4	0.600000	0.800000	0.700000
14	4	0.650000	0.850000	0.750000
14	4	0.600000	0.900000	0.600000
14	4	0.750000	0.950000	0.750000
14	4	0.700000	0.800000	0.600000
14	4	0.750000	0.850000	0.650000
14	4	0.700000	0.900000	0.700000
14	4	0.650000	0.950000	0.850000
14	4	0.600000	0.800000	0.900000
14	4	0.650000	0.850000	0.950000
14	4	0.600000	0.900000	0.800000
14	4	0.750000	0.950000	0.950000
14	4	0.700000	0.800000	0.800000
14	4	0.750000	0.850000	0.850000
14	4	0.700000	0.900000	0.900000
14	4	0.850000	0.150000	0.050000
14	4	0.800000	0.000000	0.100000
14	4	0.850000	0.050000	0.150000
14	4	0.800000	0.100000	0.000000
14	4	0.950000	0.150000	0.150000
14	4	0.900000	0.000000	0.000000
14	4	0.950000	0.050000	0.050000
14	4	0.900000	0.100000	0.100000
14	4	0.850000	0.150000	0.250000
14	4	0.800000	0.000000	0.300000
14	4	0.850000	0.050000	0.350000
14	4	0.800000	0.100000	0.200000
14	4	0.950000	0.150000	0.350000
14	4	0.900000	0.000000	0.200000
14	4	0.950000	0.050000	0.250000
14	4	0.900000	0.100000	0.300000
14	4	0.850000	0.150000	0.450000
14	4	0.800000	0.000000	0.500000
14	4	0.850000	0.050000	0.550000
14	4	0.800000	0.100000	0.400000
14	4	0.950000	0.150000	0.550000
14	4	0.900000	0.000000	0.400000
14	4	0.950000	0.050000	0.450000
14	4	0.900000	0.100000	0.500000
14	4	0.850000	0.150000	0.650000
14	4	0.800000	0.000000	0.700000
14	4	0.850000	0.050000	0.750000
14	4	0.800000	0.100000	0.600000
14	4	0.950000	0.150000	0.750000
14	4	0.900000	0.000000	0.600000
14	4	0.950000	0.050000	0.650000
14	4	0.900000	0.100000	0.700000
14	4	0.850000	0.150000	0.850000
14	4	0.800000	0.000000	0.900000
14	4	0.850000	0.050000	0.950000
14	4	0.800000	0.100000	0.800000
14	4	0.950000	0.150000	0.950000
14	4	0.900000	0.000000	0.800000
14	4	0.950000	0.050000	0.850000
14	4	0.900000	0.100000	0.900000
14	4	0.850000	0.350000	0.050000
14	4	0.800000	0.200000	0.100000
14	4	0.850000	0.250000	0.150000
14	4	0.800000	0.300000	0.000000
14	4	0.950000	0.350000	0.150000
14	4	0.900000	0.200000	0.000000
14	4	0.950000	0.250000	0.050000
14	4	0.900000	0.300000	0.100000
14	4	0.850000	0.350000	0.250000
14	4	0.800000	0.200000	0.300000
14	4	0.850000	0.250000	0.350000
14	4	0.800000	0.300000	0.200000
14	4	0.950000	0.350000	0.350000
14	4	0.900000	0.200000	0.200000
14	4	0.950000	0.250000	0.250000
14	4	0.900000	0.300000	0.300000
14	4	0.850000	0.350000	0.450000
14	4	0.800000	0.200000	0.500000
14	4	0.850000	0.250000	0.550000
14	4	0.800000	0.300000	0.400000
14	4	0.950000	0.350000	0.550000
14	4	0.900000	0.200000	0.400000
14	4	0.950000	0.250000	0.450000
14	4	0.900000	0.300000	0.500000
14	4	0.850000	0.350000	0.650000
14	4	0.800000	0.200000	0.700000
14	4	0.850000	0.250000	0.750000
14	4	0.800000	0.300000	0.600000
14	4	0.950000	0.350000	0.750000
14	4	0.900000	0.200000	0.600000
14	4	0.950000	0.250000	0.650000
14	4	0.900000	0.300000	0.700000
14	4	0.850000	0.350000	0.850000
14	4	0.800000	0.200000	0.900000
14	4	0.850000	0.250000	0.950000
14	4	0.800000	0.300000	0.800000
14	4	0.950000	0.350000	0.950000
14	4	0.900000	0.200000	0.800000
14	4	0.950000	0.250000	0.850000
14	4	0.900000	0.300000	0.900000
14	4	0.850000	0.550000	0.050000
14	4	0.800000	0.400000	0.100000
14	4	0.850000	0.450000	0.150000
14	4	0.800000	0.500000	0.000000
14	4	0.950000	0.550000	0.150000
14	4	0.900000	0.400000	0.000000
14	4	0.950000	0.450000	0.050000
14	4	0.900000	0.500000	0.100000
14	4	0.850000	0.550000	0.250000
14	4	0.800000	0.400000	0.300000
14	4	0.850000	0.450000	0.350000
14	4	0.800000	0.500000	0.200000
14	4	0.950000	0.550000	0.350000
14	4	0.900000	0.400000	0.200000
14	4	0.950000	0.450000	0.250000
14	4	0.900000	0.500000	0.300000
14	4	0.850000	0.550000	0.450000
14	4	0.800000	0.400000	0.500000
14	4	0.850000	0.450000	0.550000
14	4	0.800000	0.500000	0.400000
14	4	0.950000	0.550000	0.550000
14	4	0.900000	0.400000	0.400000
14	4	0.950000	0.450000	0.450000
14	4	0.900000	0.500000	0.500000
14	4	0.850000	0.550000	0.650000
14	4	0.800000	0.400000	0.700000
14	4	0.850000	0.450000	0.750000
14	4	0.800000	0.500000	0.600000
14	4	0.950000	0.550000	0.750000
14	4	0.900000	0.400000	0.600000
14	4	0.950000	0.450000	0.650000
14	4	0.900000	0.500000	0.700000
14	4	0.850000	0.550000	0.850000
14	4	0.800000	0.400000	0.900000
14	4	0.850000	0.450000	0.950000
14	4	0.800000	0.500000	0.800000
14	4	0.950000	0.550000	0.950000
14	4	0.900000	0.400000	0.800000
14	4	0.950000	0.450000	0.850000
14	4	0.900000	0.500000	0.900000
14	4	0.850000	0.750000	0.050000
14	4	0.800000	0.600000	0.100000
14	4	0.850000	0.650000	0.150000
14	4	0.800000	0.700000	0.000000
14	4	0.950000	0.750000	0.150000
14	4	0.900000	0.600000	0.000000
14	4	0.950000	0.650000	0.050000
14	4	0.900000	0.700000	0.100000
14	4	0.850000	0.750000	0.250000
14	4	0.800000	0.600000	0.300000
14	4	0.850000	0.650000	0.350000
14	4	0.800000	0.700000	0.200000
14	4	0.950000	0.750000	0.350000
14	4	0.900000	0.600000	0.200000
14	4	0.950000	0.650000	0.250000
14	4	0.900000	0.700000	0.300000
14	4	0.850000	0.750000	0.450000
14	4	0.800000	0.600000	0.500000
14	4	0.850000	0.650000	0.550000
14	4	0.800000	0.700000	0.400000
14	4	0.950000	0.750000	0.550000
14	4	0.900000	0.600000	0.400000
14	4	0.950000	0.650000	0.450000
14	4	0.900000	0.700000	0.500000
14	4	0.850000	0.750000	0.650000
14	4	0.800000	0.600000	0.700000
14	4	0.850000	0.650000	0.750000
14	4	0.800000	0.700000	0.600000
14	4	0.950000	0.750000	0.750000
14	4	0.900000	0.600000	0.600000
14	4	0.950000	0.650000	0.650000
14	4	0.900000	0.700000	0.700000
14	4	0.850000	0.750000	0.850000
14	4	0.800000	0.600000	0.900000
14	4	0.850000	0.650000	0.950000
14	4	0.800000	0.700000	0.800000
14	4	0.950000	0.750000	0.950000
14	4	0.900000	0.600000	0.800000
14	4	0.950000	0.650000	0.850000
14	4	0.900000	0.700000	0.900000
14	4	0.850000	0.950000	0.050000
14	4	0.800000	0.800000	0.100000
14	4	0.850000	0.850000	0.150000
14	4	0.800000	0.900000	0.000000
14	4	0.950000	0.950000	0.150000
14	4	0.900000	0.800000	0.000000
14	4	0.950000	0.850000	0.050000
14	4	0.900000	0.900000	0.100000
14	4	0.850000	0.950000	0.250000
14	4	0.800000	0.800000	0.300000
14	4	0.850000	0.850000	0.350000
14	4	0.800000	0.900000	0.200000
14	4	0.950000	0.950000	0.350000
14	4	0.900000	0.800000	0.200000
14	4	0.950000	0.850000	0.250000
14	4	0.900000	0.900000	0.300000
14	4	0.850000	0.950000	0.450000
14	4	0.800000	0.800000	0.500000
14	4	0.850000	0.850000	0.550000
14	4	0.800000	0.900000	0.400000
14	4	0.950000	0.950000	0.550000
14	4	0.900000	0.800000	0.400000
14	4	0.950000	0.850000	0.450000
14	4	0.900000	0.900000	0.500000
14	4	0.850000	0.950000	0.650000
14	4	0.800000	0.800000	0.700000
14	4	0.850000	0.850000	0.750000
14	4	0.800000	0.900000	0.600000
14	4	0.950000	0.950000	0.750000
14	4	0.900000	0.800000	0.600000
14	4	0.950000	0.850000	0.650000
14	4	0.900000	0.900000	0.700000
14	4	0.850000	0.950000	0.850000
14	4	0.800000	0.800000	0.900000
14	4	0.850000	0.850000	0.950000
14	4	0.800000	0.900000	0.800000
14	4	0.950000	0.950000	0.950000
14	4	0.900000	0.800000	0.800000
14	4	0.950000	0.850000	0.850000
14	4	0.900000	0.900000	0.900000
