14 4 0.05000138542042764 0.15001295899746828 0.050001361349778513
14 4 2.168834699912795e-08 5.9720701291740325e-08 0.10000673846520881
14 4 0.050001366209843835 0.050001316872469323 0.15001304709834015
14 4 4.3459503318593555e-09 0.10000684390720577 0.99999998184023564
14 4 0.15000615973815895 0.15000613430549103 0.15000614258215195
14 4 0.10000675663344254 5.9256153553596254e-08 -6.1675768943292279e-09
14 4 0.15001304834604812 0.05000132116765512 0.050001349325992143
14 4 0.10000335707088456 0.10000339758953075 0.10000335620692564
14 4 0.049999216831063002 0.15000708830655932 0.25000922691815314
14 4 2.5039754390564502e-08 0.99999994396060954 0.30001575943212055
14 4 0.050004420824232586 0.050004485754468211 0.35000433560804617
14 4 0.99999769446365627 0.10000213058595382 0.20000864376253305
14 4 0.15001257444365149 0.15001262154591283 0.349996157724275
14 4 0.10000213763921434 0.99999766749835395 0.20000865151615094
14 4 0.1500070680470128 0.049999225909680416 0.25000922347798099
14 4 0.10000382553884166 0.10000376096368295 0.30000045841601769
14 4 0.049996831341648111 0.15000464256594534 0.44999811969040743
14 4 2.473543815502091e-08 0.99999990497558666 0.500000009316657
14 4 0.050001760305243878 0.050001839767629674 0.5500081198371144
14 4 0.99999601797723969 0.10000761050305895 0.39999655090343678
14 4 0.15005741983311621 0.15005746708383311 0.55000160630124029
14 4 0.100007717937066 0.99999590670271576 0.39999656013426377
14 4 0.15000454905739133 0.049996881315413494 0.44999811805545753
14 4 0.10001154409410692 0.10001144228775741 0.49997949216975368
14 4 0.050007635650841029 0.15001845624814228 0.6500027145102133
14 4 1.6964604307132058e-08 0.99999997417099395 0.69998427427750642
14 4 0.049998642498954228 0.049998605108242292 0.74998805665812174
14 4 4.0483007229982738e-06 0.10000761389575803 0.60000346023358209
14 4 0.15001660992412202 0.15001658643593374 0.74998633043606999
14 4 0.10000770666412791 3.9543421148309813e-06 0.60000346640131197
14 4 0.15001842053875536 0.050007643452957252 0.65000270355071255
14 4 0.10000407968075434 0.10000405776297332 0.69999354198220409
14 4 0.050004072693199265 0.15000890151509613 0.84999104396872494
14 4 1.0941535394361051e-08 7.7324989089948095e-08 0.89999323367859774
14 4 0.049995442189004063 0.049995323118521826 0.95000459431508411
14 4 2.331160211148282e-06 0.10000214895194406 0.79999133983253123
14 4 0.15000897774013397 0.15000891518211731 0.9499959475124351
14 4 0.10000211225598626 2.3455150280550899e-06 0.79999135044783543
14 4 0.15000897762425117 0.050004010639989778 0.8499910313528769
14 4 0.099999313977968809 0.099999377122007543 0.90000067822034324
14 4 0.050004456091853701 0.3500042582218334 0.050004427052076479
14 4 0.99999767595119637 0.20000872855564708 0.10000210576284119
14 4 0.049999238559898448 0.2500091771692341 0.1500070834687659
14 4 -4.9215356528341435e-09 0.30001586228371863 0.99999998701192572
14 4 0.15001260896261545 0.34999615658594529 0.15001259219993257
14 4 0.10000210604554445 0.2000087169990151 0.99999767289549635
14 4 0.15000710091503505 0.25000919323516063 0.049999206534480811
14 4 0.10000379450516449 0.30000050514815535 0.10000380175226151
14 4 0.049994571138097244 0.35000468304582738 0.25000476460135279
14 4 0.9999977156455756 0.20000650240068696 0.29999573671531837
14 4 0.049994550288061983 0.25000481704707123 0.35000467342474545
14 4 0.99999769723930143 0.29999577261537846 0.20000653387859316
14 4 0.15001897400040232 0.35001111164664939 0.35001107409762233
14 4 0.099997360108272676 0.20000354532848619 0.20000353501594614
14 4 0.15000236009141441 0.25000581853627291 0.25000580330681443
14 4 0.099995738873694687 0.29999290908344994 0.29999293588521198
14 4 0.049990653192984978 0.35000169481754395 0.45000318015059293
14 4 4.3728750147443151e-08 0.19998778354019672 0.49999997891067266
14 4 0.049991326902310687 0.25001015391978054 0.54998692746279754
14 4 1.4955711053886109e-06 0.29999180441026918 0.39999944005003418
14 4 0.15002707776757182 0.35003345451288298 0.54997378947170195
14 4 0.099998280937858619 0.19999208570996518 0.39999387213762305
14 4 0.15001778531931542 0.25001886589906869 0.45000024755712908
14 4 0.099995816847701702 0.29999949701166378 0.50000330253101366
14 4 0.049994168746820486 0.35001092065595679 0.64998915195189277
14 4 2.3342295634899855e-06 0.20000651290899921 0.70000423070585305
14 4 0.050010442911588154 0.25000738830461861 0.74999261717689625
14 4 0.9999985982377686 0.29999182381200917 0.6000004890504258
14 4 0.15005566718499702 0.35002497644391478 0.74994676259991211
14 4 0.10001023807934226 0.20002244323307938 0.59998690583772574
14 4 0.15005566802449669 0.2500532434694348 0.64997499619696497
14 4 0.10000829484440026 0.3000092966581287 0.69999069540269909
14 4 0.050007650949513482 0.3499972215511043 0.84998159154792974
14 4 2.3240029339212229e-06 0.2000087358829595 0.89999786218045663
14 4 0.049998650361309335 0.25001184505342305 0.95000138928934852
14 4 2.3184316211641409e-06 0.29999579443817898 0.79999342963269393
14 4 0.150018429287822 0.34999725297205758 0.94999236650563335
14 4 0.1000068589557913 0.2000064912449562 0.79999355252971871
14 4 0.15001660628572114 0.2500136079310778 0.84998338403027951
14 4 0.10000407220970811 0.30000653802558785 0.89999592197843148
14 4 0.050001769562341224 0.55000805673570918 0.050001769278895151
14 4 0.99999599048158472 0.39999663455633283 0.1000077021797858
14 4 0.049996861939177836 0.44999808209100245 0.15000455999515688
14 4 2.5689330527349377e-08 0.5000000991253758 3.1597197712451636e-09
14 4 0.15005744837766732 0.55000162248092532 0.15005745446420538
14 4 0.1000077010704364 0.39999661853900698 0.9999959796063288
14 4 0.15000456995591352 0.44999809869771223 0.049996846836484476
14 4 0.10001152348625389 0.49997952836712223 0.10001151148280484
14 4 0.049991357992525798 0.5499869439357542 0.25001008065509756
14 4 1.4779734262778842e-06 0.39999940706651965 0.2999918877708076
14 4 0.049990674578930326 0.45000324391371094 0.35000160540279862
14 4 1.8020033650955586e-08 0.50000001021072704 0.19998788585898442
14 4 0.15002711455300385 0.54997382771741699 0.3500334328333175
14 4 0.099998250572318023 0.39999387916089113 0.19999214481699151
14 4 0.15001782332851768 0.45000027107292856 0.25001883747157677
14 4 0.099995786491820476 0.50000327502312192 0.29999955412311524
14 4 0.049989919350208828 0.54998651918586072 0.45001360635143522
14 4 5.0569905142744416e-08 0.39999793803309397 0.49999997226409604
14 4 0.04998990212273241 0.45001369381330442 0.54998642406020792
14 4 2.7475765576312309e-08 0.49999988378689042 0.3999980516376786
14 4 0.15003285197857744 0.54999944211926843 0.54999941703386412
14 4 0.099993397121082808 0.40000117094902221 0.40000122292572249
14 4 0.15003285522540405 0.45000063129372792 0.4500005963867531
14 4 0.10001211388149631 0.49999993764008471 0.49999999741055734
14 4 0.049990668596036208 0.54999688008879422 0.64999841245935708
14 4 0.9999985726568007 0.39999945526498804 0.70000806334953114
14 4 0.049991342209578751 0.45001307802889845 0.74998993980652595
14 4 1.8570513096150573e-08 0.4999999270674807 0.60000192231112814
14 4 0.15001779690341474 0.54999973381755407 0.74998117386526786
14 4 0.099994944281381823 0.40000555075043681 0.59999439296714374
14 4 0.15002707734780771 0.4500262177253937 0.64996659079834529
14 4 0.099995809396356689 0.49999669787017881 0.7000004277434646
14 4 0.049996845912755238 0.55000180709238256 0.84999543641023256
14 4 4.0184745519125741e-06 0.39999666143291462 0.89999227938381787
14 4 0.050001769993851579 0.44999177883105501 0.94999825386895309
14 4 2.1046963981977357e-08 0.50000007085393361 0.80001209898753423
14 4 0.15000454829906512 0.55000185976188209 0.95000317262851186
14 4 0.10001022570317122 0.40001313212411693 0.79997750092088771
14 4 0.15005742798132268 0.44999837231528145 0.84994256131325618
14 4 0.10001153706582701 0.50002058282243322 0.89998847450988229
14 4 0.049998608787382923 0.74998798988723547 0.049998619706230651
14 4 4.0515236207382779e-06 0.60000353635779125 0.10000769824929159
14 4 0.050007634385967288 0.65000268746447842 0.15001841961693219
14 4 4.7963974763872407e-08 0.69998437098433353 1.0000000078458728
14 4 0.15001658563163245 0.74998634573667311 0.15001660987004961
14 4 0.10000772544481454 0.6000035244705485 4.0057784287961685e-06
14 4 0.15001840109492753 0.65000269468622274 0.050007645342589953
14 4 0.10000410401239282 0.69999357178667798 0.10000407023764252
14 4 0.0500104408229404 0.74999263895541501 0.2500074009179073
14 4 0.99999857077154619 0.60000045064777785 0.29999190277830251
14 4 0.049994199075841593 0.64998922168870155 0.35001088075771197
14 4 2.3420490808291647e-06 0.70000425021918133 0.20000654020260872
14 4 0.15005568975969799 0.74994681454359557 0.35002498667261783
14 4 0.10001022453335578 0.59998690258859622 0.20002248567721481
14 4 0.15005568601349376 0.64997503685333513 0.25005323961186349
14 4 0.10000828239160102 0.69999064639300823 0.30000930027828676
14 4 0.049991375502323479 0.7499900322213503 0.45001308547339708
14 4 -4.5878825679440068e-09 0.60000181158260324 0.50000000846397485
14 4 0.049990689385208918 0.64999850316684582 0.54999683247088116
14 4 0.99999854587369785 0.70000796997176284 0.39999948124676288
14 4 0.15001783348304923 0.74998120386792777 0.54999975000542833
14 4 0.099994912487491136 0.59999433565467164 0.40000558545689585
14 4 0.15002711184901463 0.64996663339050098 0.45002621065689213
14 4 0.099995778612138167 0.70000036258411558 0.49999669270213032
14 4 0.049994585799528757 0.74999528666517301 0.64999532381806158
14 4 1.4547714519573229e-06 0.60000052922554703 0.70000810470040697
14 4 0.049994567120063171 0.64999531567478452 0.74999523991178663
14 4 1.4364189671072863e-06 0.70000802229550962 0.60000055124787011
14 4 0.15000234411172667 0.74999419254828914 0.74999421193608085
14 4 0.099993394585700543 0.59999872397839649 0.59999875627043053
14 4 0.15001898230112082 0.64998893989967454 0.64998893508380129
14 4 0.099995734095928393 0.70000705936664553 0.70000705821053411
14 4 0.049999214211928107 0.74999069820397846 0.84999290539920846
14 4 0.99999602978932589 0.60000357860387898 0.89999231436161964
14 4 0.050004415074525695 0.64999555242017659 0.94999557227370302
14 4 0.99999772764282535 0.70000432949542757 0.79999348785540625
14 4 0.15000705917909235 0.74999074893946349 0.95000080100119555
14 4 0.099998267511874628 0.6000061788290908 0.8000078472509381
14 4 0.15001257146335387 0.65000381918872707 0.84998742000324601
14 4 0.10000383059918017 0.69999961647644748 0.89999619122887875
14 4 0.049995417135770687 0.95000450740248421 0.049995419263474207
14 4 2.362982740758104e-06 0.79999141210712521 0.10000211523131726
14 4 0.050004039492450338 0.84999100873240463 0.15000896564699198
14 4 2.6894649903022074e-08 0.89999334200478442 -8.1415486193820422e-09
14 4 0.15000894438314152 0.94999594509857188 0.15000895797902913
14 4 0.10000214423789106 0.79999140940488733 2.3144413673595833e-06
14 4 0.150008944711051 0.84999100914470516 0.050004050517837149
14 4 0.09999934700116811 0.90000071333012699 0.099999319727147526
14 4 0.049998620032374923 0.95000139903547953 0.2500119326175988
14 4 2.3227259772423038e-06 0.79999338362667094 0.29999575668013823
14 4 0.050007653677637376 0.84998165358797795 0.34999727924334129
14 4 2.3562190662483186e-06 0.89999788384102331 0.20000864876534977
14 4 0.15001841158596488 0.94999240028494469 0.34999728530334923
14 4 0.10000688490911717 0.79999353973301168 0.2000064590697431
14 4 0.15001658719848282 0.84998341155873303 0.25001364492276745
14 4 0.10000409476752459 0.89999587438140982 0.30000647826649846
14 4 0.050001777441380069 0.94999833265783462 0.44999185150608906
14 4 -6.4110594606643981e-09 0.80001199210362806 0.50000002888817552
14 4 0.049996874346443537 0.84999551595874601 0.55000186384841043
14 4 4.0201145221082955e-06 0.89999218785789858 0.39999657792107635
14 4 0.15000456813659535 0.95000319430470392 0.55000189161082957
14 4 0.10001021171631633 0.79997742989534693 0.40001309841058713
14 4 0.1500574499905393 0.84994260105209285 0.44999839613384812
14 4 0.10001151399149975 0.89998840676397429 0.50002052098019767
14 4 0.05000444720332442 0.94999561244321085 0.64999563099602353
14 4 0.99999771000478366 0.79999345817979273 0.7000042904893149
14 4 0.049999232811217299 0.84999289245131115 0.74999075489696365
14 4 0.99999600005446299 0.89999222897703923 0.60000348794659697
14 4 0.15000709219606978 0.95000077540398875 0.7499907799422878
14 4 0.099998237054495745 0.80000780378402658 0.60000613529969526
14 4 0.15001260470487307 0.8499874202780987 0.65000385043348974
14 4 0.10000379982484081 0.89999618509224566 0.69999955362521404
14 4 0.050001378081550356 0.94999857719516489 0.84998694864858138
14 4 0.99999771407309868 0.79999145160503227 0.89999789575099487
14 4 0.050001360039683238 0.8499868596146154 0.94999864205009255
14 4 0.99999769569895358 0.89999792990468519 0.79999136648750058
14 4 0.15001304768133225 0.9499986016605978 0.94999864325511574
14 4 0.099997371975968863 0.79999649964224806 0.79999645929362861
14 4 0.15000614064467013 0.84999382145588875 0.84999386140917255
14 4 0.10000336794212115 0.89999669813805705 0.89999663590097156
14 4 0.25000922843805684 0.15000710171294407 0.049999197199835185
14 4 0.20000865647091456 0.99999766625347908 0.10000212453445018
14 4 0.250009205377135 0.049999233900152242 0.1500070669424064
14 4 0.20000863270687858 0.10000212141403587 0.99999768655650456
14 4 0.34999616974244141 0.15001265157963217 0.15001259099027173
14 4 0.30001573716586072 0.99999993561259548 5.9014965234018342e-09
14 4 0.35000433442284928 0.050004499459788118 0.050004409610360977
14 4 0.30000041889954893 0.10000374505653725 0.10000381277599749
14 4 0.25000579243458898 0.15000236861960786 0.25000580406837819
14 4 0.20000655229244929 0.99999766312379113 0.29999574883772273
14 4 0.25000472266935791 0.049994541857496369 0.35000467073832253
14 4 0.20000353492506093 0.099997338602682034 0.20000353853514832
14 4 0.35001104847427961 0.15001893781275827 0.35001108277120213
14 4 0.29999574258575917 0.99999765847881616 0.20000654741026669
14 4 0.35000463880387123 0.049994555922552503 0.25000475306820624
14 4 0.29999293478132383 0.099995728693424463 0.29999293060039534
14 4 0.25001878272768757 0.15001777687410597 0.45000025868662286
14 4 0.19998788775703152 0.99999998108748778 0.49999998537017382
14 4 0.25001005297008355 0.049991308703259858 0.5499869191343828
14 4 0.19999217037230554 0.09999822949930727 0.3999938732818013
14 4 0.3500333374126936 0.15002698202359654 0.54997381672001655
14 4 0.29999189156840905 1.4846633204961058e-06 0.39999945563732936
14 4 0.35000155737128552 0.049990569334908544 0.45000317497784353
14 4 0.29999957300233415 0.099995839214687091 0.50000330453865582
14 4 0.25005320482404098 0.15005565104505214 0.64997498819129262
14 4 0.2000065274969042 2.3047632263311833e-06 0.70000424750637302
14 4 0.25000739453930193 0.050010422887391874 0.74999259349235858
14 4 0.20002249901073832 0.10001020249497826 0.59998691497823364
14 4 0.35002496637569919 0.15005566645855342 0.74994673978236093
14 4 0.29999188332524507 0.99999859225359022 0.60000050568408614
14 4 0.35001084668824967 0.049994121528784484 0.64998913282858395
14 4 0.30000928854615377 0.10000828911923676 0.69999071641738753
14 4 0.25001364889966105 0.15001659986254437 0.84998336787249773
14 4 0.20000864039317262 2.3256143427421152e-06 0.89999788318059681
14 4 0.25001193154178564 0.049998634183289134 0.95000136761237919
14 4 0.20000644038883617 0.10000686580981523 0.79999356351637652
14 4 0.34999729442388927 0.15001848620948904 0.94999234557294099
14 4 0.29999573260162887 2.2767747204278259e-06 0.79999344937197658
14 4 0.34999727423842958 0.050007678564614487 0.84998157091860693
14 4 0.30000643844318164 0.10000402987513547 0.89999594287184814
14 4 0.25000475833829572 0.35000471363248004 0.049994550931723711
14 4 0.20000351209689693 0.20000352846213013 0.099997365667030366
14 4 0.25000581514229203 0.25000583746575961 0.1500023517754166
14 4 0.20000651568516864 0.29999574695317149 0.99999769515333425
14 4 0.35001108646588797 0.350011154997383 0.15001899144882391
14 4 0.2999957004781581 0.20000648182396732 0.99999770579522818
14 4 0.35000467608294117 0.25000483889546393 0.049994547596478284
14 4 0.29999289365007464 0.29999286652199347 0.099995732081113051
14 4 0.25001861302612322 0.3500091190756191 0.25001861257561464
14 4 0.20000999963018226 0.20000997524433678 0.29998801362611971
14 4 0.25001858743873068 0.25001860194184661 0.35000909397900454
14 4 0.20000997450502986 0.29998799602462006 0.20000999198762312
14 4 0.35005967249832004 0.35005963465319556 0.35005967952422934
14 4 0.29998795412079066 0.20000993197150416 0.20000996926734183
14 4 0.3500091404195701 0.25001865165328013 0.25001864098694787
14 4 0.30003568585989732 0.30003572482073027 0.3000357154451383
14 4 0.25013019284392451 0.35005970105015383 0.45001311474712974
14 4 0.20010915368946092 0.20010911632564851 0.49999059970757159
14 4 0.25026609122419896 0.25026610420338957 0.54997959975874977
14 4 0.20004400298187786 0.30001871945698561 0.40002975607843505
14 4 0.3509301152011236 0.35093009158340427 0.54982722354966385
14 4 0.30001873211961677 0.20004402983413294 0.40002973551884341
14 4 0.35005963732057677 0.25013011679579655 0.45001316313169643
14 4 0.30049672004465156 0.30049676418133303 0.49999403608173515
14 4 0.25021280644224503 0.35014299741836596 0.64985694760521062
14 4 0.20003338391144568 0.20003339134167059 0.69998858909648831
14 4 0.25006622125922862 0.25006622181234273 0.74993371413229992
14 4 0.20011718409249618 0.30009631892773847 0.59996607287921555
14 4 0.35014302953849541 0.35014306824326979 0.74978702217716264
14 4 0.30009634244632349 0.20011722184872074 0.59996607612801356
14 4 0.3501429423086575 0.25021274309926556 0.64985696560577544
14 4 0.30012767704764698 0.3001277101775584 0.69987239013650226
14 4 0.2500532215209666 0.35002501170836431 0.84994427888596202
14 4 0.2000064352335971 0.20000647417218514 0.89999315957928594
14 4 0.25000740394072973 0.25000741969821921 0.94998955093833681
14 4 0.20003337636206461 0.30001147450937071 0.79996664986198873
14 4 0.35001089234237176 0.35001098426468907 0.95000580984923644
14 4 0.30001142724706187 0.20003336727821402 0.79996666620777679
14 4 0.35002499408210119 0.25005328286027456 0.84994426269544765
14 4 0.30000926325699168 0.3000092509240776 0.89999175306669665
14 4 0.25001005294082013 0.5499869702362068 0.049991356005405448
14 4 0.1999921351159889 0.39999385813510197 0.099998248624264166
14 4 0.25001882162550138 0.4500003037533149 0.15001781785644813
14 4 0.1999878883500508 0.4999999842087185 -8.2296279212577845e-09
14 4 0.35003336091562964 0.54997389809585817 0.15002708576042725
14 4 0.29999186645310894 0.39999938816989183 1.4517445101444105e-06
14 4 0.35000157963553907 0.45000327617997804 0.04999066494783095
14 4 0.29999955259643452 0.50000323930727941 0.099995780281569996
14 4 0.2502661372518335 0.54997965627764034 0.25026616454802569
14 4 0.20004397862290346 0.40002974123741403 0.30001872002042468
14 4 0.2501302245094052 0.45001312117836695 0.35005973049230171
14 4 0.20010912751700646 0.49999057229774402 0.20010912089827171
14 4 0.35093019678413179 0.54982723451342252 0.35093023971545861
14 4 0.30001869163771022 0.40002969620209566 0.20004398227091219
14 4 0.35005968326011 0.45001319677156232 0.25013022182384015
14 4 0.30049674163775097 0.49999402973075296 0.300496752129916
14 4 0.25013018926551944 0.54989969612817724 0.45010027322503626
14 4 0.20007320106279036 0.40003508539985716 0.50001454121603783
14 4 0.25013015703210195 0.45010023437133234 0.54989972301626677
14 4 0.20007318452855746 0.50001454316325811 0.40003506870011496
14 4 0.35050681578355852 0.54995413923984693 0.54995414641294882
14 4 0.30016063490092193 0.40008205799490204 0.40008199867109656
14 4 0.3505067951268902 0.45004566601510559 0.4500457021854018
14 4 0.30035085197689021 0.50000016601642883 0.50000007357659393
14 4 0.25013022332649404 0.54998684757729244 0.64994025647977838
14 4 0.20011716737201224 0.40003395676279058 0.69990369352927917
14 4 0.25026613214045601 0.4500204083601777 0.74973382524823118
14 4 0.20007320963268041 0.49998550308624934 0.59996492351884312
14 4 0.35005975292816738 0.54998697675271568 0.74986970772807204
14 4 0.30037699596080802 0.40022874359667121 0.59977134253753905
14 4 0.35093028266515713 0.45017286099174203 0.64906961040030597
14 4 0.30049668906158222 0.50000598620230718 0.69950330196342314
14 4 0.25001881152261191 0.54999981130456965 0.84998219114428752
14 4 0.20002248210442339 0.4000130952836381 0.89998979124161427
14 4 0.2500100661779549 0.45001315895997973 0.95000866923010863
14 4 0.20010912461262811 0.50000940059874632 0.79989086781540286
14 4 0.35000157445604818 0.54999698692674914 0.95000937159422605
14 4 0.30009627243177067 0.40003390792321497 0.79988287914570322
14 4 0.35003344539871872 0.45002636369720944 0.8499728375804263
14 4 0.29999953586400924 0.49999659514899947 0.90000421117779661
14 4 0.25000735838304644 0.74999264352673523 0.050010451101030834
14 4 0.20002250090353385 0.59998689069865652 0.10001020001216723
14 4 0.2500531981289677 0.64997505065054606 0.15005569637434196
14 4 0.20000656178234938 0.70000423971009329 2.2919923148544683e-06
14 4 0.35002493473915069 0.74994682227519494 0.15005569327517451
14 4 0.29999190558701749 0.6000004360809752 0.99999853550304074
14 4 0.35001082485333607 0.64998923498409755 0.049994199221055191
14 4 0.30000931609755632 0.69999063638308734 0.10000825968137579
14 4 0.25006621461472583 0.74993375215831648 0.25006623825046825
14 4 0.20011716683515046 0.59996604073803816 0.30009630042482921
14 4 0.25021283874169903 0.64985696582165908 0.35014302565111888
14 4 0.20003339441908849 0.69998854328544535 0.20003337573056562
14 4 0.3501430477431921 0.74978700244916952 0.35014307150087509
14 4 0.30009632864657698 0.59996602233817664 0.20011717291158923
14 4 0.35014295477405805 0.64985700763571463 0.2502128203248139
14 4 0.30012767535078005 0.69987236632186345 0.30012768119667316
14 4 0.25026615030928512 0.74973382496215979 0.45002040575610253
14 4 0.20007319423895309 0.59996493913790805 0.4999854761610053
14 4 0.25013024913554543 0.64994022639088644 0.54998687081472697
14 4 0.20011715307534403 0.69990367160515754 0.40003394126923814
14 4 0.3500597833271325 0.74986962638222754 0.5499869755625536
14 4 0.30037700551170127 0.59977138042607359 0.40022869142093326
14 4 0.35093023058547279 0.64906965368526137 0.4501728659457882
14 4 0.30049665507231232 0.69950337476727398 0.50000594851407565
14 4 0.25001858443275465 0.74998138971836403 0.64999094100052202
14 4 0.20004399182386706 0.59997027422581739 0.69998125401911371
14 4 0.25001856139135115 0.64999092591110641 0.74998142729148842
14 4 0.20004397275714811 0.6999812727151139 0.59997024148769906
14 4 0.35000899168984179 0.74998150404259289 0.74998151313387029
14 4 0.30016058872554424 0.59991815500473455 0.59991807856281898
14 4 0.35005963046209942 0.6499403002743015 0.64994035862706023
14 4 0.30003577147538096 0.69996420895239964 0.69996416112153548
14 4 0.25000574921303131 0.74999425121156982 0.8499976906591542
14 4 0.19999215587006733 0.60000612028802358 0.90000173443065634
14 4 0.25000471223247789 0.64999541204069067 0.95000547587997353
14 4 0.20001000341264608 0.70001197509489732 0.79998997310838471
14 4 0.35000458822553177 0.74999536848608395 0.95000549841141224
14 4 0.30001873580101163 0.59997017278802256 0.7999559683291394
14 4 0.35001100878086461 0.6499890669319045 0.8499810855659865
14 4 0.29999297200094238 0.70000694433256827 0.9000042180745278
14 4 0.25001190707640752 0.950001406845148 0.049998610657879437
14 4 0.20000647978720176 0.79999353885276603 0.10000685403367501
14 4 0.25001360727804289 0.84998341346492268 0.15001660108329004
14 4 0.20000866338614667 0.89999787980632906 2.3183245858796179e-06
14 4 0.34999725272177906 0.94999240739656243 0.15001841060936827
14 4 0.29999577260042165 0.79999337890913524 2.2872942859596714e-06
14 4 0.34999723135221261 0.8499816598960479 0.050007644980012748
14 4 0.30000648365505783 0.89999587074793264 0.10000407811167196
14 4 0.25000736951662939 0.94998957036014942 0.25000739600929717
14 4 0.2000333882998715 0.79996660319014434 0.30001145692067932
14 4 0.25005322001548758 0.84994428232091368 0.35002500006639631
14 4 0.20000647538607735 0.89999312537237186 0.20000646413941203
14 4 0.35001087096711825 0.95000575968614165 0.35001090128807161
14 4 0.30001146478065666 0.79996660366835337 0.20003337823658476
14 4 0.35002496819959938 0.8499442815587982 0.25005324149425084
14 4 0.30000929138357912 0.89999174469725185 0.30000929686807387
14 4 0.25001006656281705 0.9500086362006811 0.45001312501260149
14 4 0.20010908914536446 0.79989086974399093 0.50000937850540783
14 4 0.2500188439977718 0.84998214552870721 0.5499998012697952
14 4 0.2000224844923863 0.8999897660997731 0.40001308710793199
14 4 0.35000159769085626 0.9500092659467031 0.5499968934306404
14 4 0.3000962549454565 0.79988290348093183 0.40003391975178348
14 4 0.35003347133683343 0.84997275610567624 0.45002631056283243
14 4 0.29999951844329481 0.90000427241549674 0.49999663455417021
14 4 0.25000474651704091 0.95000542998489546 0.64999537724835144
14 4 0.20000998350830321 0.7999899998160741 0.70001194854706528
14 4 0.25000577018685294 0.84999766698439705 0.74999424362471689
14 4 0.19999212200928071 0.90000174444173997 0.60000610405621624
14 4 0.35000462589669845 0.9500054776148833 0.74999528189413467
14 4 0.30001869815111643 0.79995604238517093 0.59997016807794734
14 4 0.35001104603737671 0.8499810150471232 0.64998901685102961
14 4 0.29999293380452402 0.90000425771938797 0.70000698680460238
14 4 0.25000920952733302 0.95000080586583879 0.84999292771243473
14 4 0.20000355640374545 0.79999644883528032 0.90000261089114364
14 4 0.25000918652003173 0.84999295315631063 0.95000080667091991
14 4 0.20000353365789833 0.90000263230323885 0.79999643393538122
14 4 0.35000430703103286 0.94999566162044402 0.94999558158010844
14 4 0.29998806569184461 0.79998990538561954 0.79998990522641455
14 4 0.3499960908923927 0.84998750880437779 0.84998746891214927
14 4 0.30000047102063748 0.89999612213244395 0.89999616478717914
14 4 0.44999813874091837 0.1500046581400436 0.049996833155300402
14 4 0.39999652730123864 0.99999589808191081 0.10000770383033604
14 4 0.44999811840172887 0.049996893127841009 0.150004556465693
14 4 0.39999649971375345 0.1000075957139132 0.99999599504897396
14 4 0.55000162817640841 0.15005747515978837 0.15005743758246912
14 4 0.49999998544432184 0.99999990620894808 5.4624294381982088e-09
14 4 0.55000813341690391 0.050001840130315098 0.050001759519511836
14 4 0.49997944088542595 0.1000114386085305 0.10001152727924373
14 4 0.45000024602886796 0.15001782379583373 0.2500188548628387
14 4 0.39999944425938988 1.4798440759755949e-06 0.2999918996950498
14 4 0.4500031330599174 0.049990577553928987 0.35000159853613383
14 4 0.39999382089826419 0.099998205173180088 0.19999214330834716
14 4 0.5499737524446664 0.15002703708560802 0.35003342570225116
14 4 0.49999996474078195 0.99999997695762 0.19998788676457574
14 4 0.54998690622024082 0.04999132146012699 0.25001007823002458
14 4 0.5000032836977637 0.099995804951678119 0.29999954470883988
14 4 0.45000050714749001 0.15003271323648398 0.45000061182110868
14 4 0.39999802553227598 1.0283649263295886e-07 0.49999998360271064
14 4 0.45001356379020491 0.049989782845716944 0.54998641854674357
14 4 0.40000122989142206 0.099993458267239724 0.40000122702027879
14 4 0.5499993291668025 0.15003273551053287 0.5499994317147674
14 4 0.4999999623451597 9.2015452599124263e-08 0.39999805137066063
14 4 0.54998639190290977 0.049989791697178765 0.45001360219917985
14 4 0.50000000482248741 0.10001220961424867 0.50000000276531864
14 4 0.45002611872839771 0.15002700314222092 0.64996659832041837
14 4 0.39999945418495297 0.99999855733098286 0.70000807598549808
14 4 0.4500130608688212 0.049991345570808865 0.74998992621076632
14 4 0.40000559680753761 0.099995002800472382 0.59999440561098627
14 4 0.54999971622822585 0.15001781049463442 0.74998116881616694
14 4 0.49999997835009458 6.0588904108028686e-08 0.60000192204422842
14 4 0.54999680503994763 0.049990610532851434 0.64999842076185688
14 4 0.49999669947329234 0.099995804260013837 0.70000043509051701
14 4 0.44999839233707306 0.15005749870044011 0.84994253768004446
14 4 0.39999653563734272 3.9088567712745869e-06 0.89999229061687414
14 4 0.44999186251202827 0.050001861794913074 0.94999824269347255
14 4 0.40001306663489733 0.10001016830461638 0.79997752275956135
14 4 0.55000191137639476 0.15000464383616655 0.95000316533218154
14 4 0.5000000091006862 0.999999940592739 0.80001209879588653
14 4 0.55000186079505164 0.04999690514666686 0.84999543540315303
14 4 0.50002047707199915 0.10001142179673221 0.89998848674724397
14 4 0.4500031756888046 0.35000170998913382 0.049990655933804196
14 4 0.39999379540857605 0.19999205094141304 0.099998250922636214
14 4 0.45000026970861451 0.25001891980504082 0.1500178316314528
14 4 0.39999940195691441 0.29999179413965432 1.4604903790630326e-06
14 4 0.54997380026487153 0.35003346853054901 0.15002710792889956
14 4 0.49999992758054412 0.19998778247551133 1.0000000076189093
14 4 0.54998694605224474 0.25001015341079447 0.049991343554356485
14 4 0.50000324100148485 0.29999946869053923 0.099995772483110243
14 4 0.45001315449587609 0.35005981412361564 0.25013028903095491
14 4 0.40002965945883817 0.20004395037586017 0.30001864543038598
14 4 0.45001312502032875 0.25013021358596532 0.35005980324991348
14 4 0.40002963402227176 0.30001860929405716 0.20004392438117785
14 4 0.5498271389876801 0.35093026833927587 0.35093034051995137
14 4 0.49999053335173177 0.20010907667573216 0.20010910467276141
14 4 0.54997960505510424 0.25026615056006452 0.25026616879982683
14 4 0.49999396853127209 0.30049670077669544 0.30049666319372059
14 4 0.45004565321227141 0.35050667312876638 0.45004580824372353
14 4 0.40003514361988024 0.20007334854106515 0.50001452774411947
14 4 0.45010002730557963 0.25012992386193272 0.54989986694653537
14 4 0.4000819732931678 0.30016074155362921 0.40008190862887422
14 4 0.54995406376608735 0.35050670235729753 0.54995418552548603
14 4 0.50001453702492948 0.20007326500911676 0.40003502645854427
14 4 0.54989961912119278 0.25013011896287485 0.45010028540615188
14 4 0.50000022053092152 0.30035115634709425 0.49999993989405839
14 4 0.45017277195700284 0.35093022471454405 0.64906964795961841
14 4 0.40003394353119348 0.20011719002092362 0.69990370138383284
14 4 0.45002036614555674 0.25026616412196739 0.74973380764928577
14 4 0.40022876328105672 0.30037712231998359 0.59977130039668425
14 4 0.54998695081849491 0.35005980443689894 0.74986968213905592
14 4 0.49998553129981899 0.20007332651186452 0.59996490239749023
14 4 0.54998677126629891 0.2501301698969759 0.64994026836439656
14 4 0.50000597334662722 0.30049672099436225 0.69950331448338943
14 4 0.45002629361277857 0.35003355453482277 0.84997281639058697
14 4 0.40001303757160134 0.20002240374173544 0.89998981272205292
14 4 0.45001313636010309 0.25001018179214129 0.95000864777823579
14 4 0.40003389899039132 0.30009623917844169 0.79988289423409098
14 4 0.54999690735832041 0.35000170568493849 0.95000934540347826
14 4 0.5000093682748854 0.20010906669952572 0.79989088868814184
14 4 0.54999980552511085 0.25001890123403603 0.84998216687495376
14 4 0.49999659598292701 0.29999945122992167 0.90000423914138405
14 4 0.4500135699523754 0.54998653623531779 0.049989904096322618
14 4 0.40000118981489835 0.4000011390512655 0.099993383224506849
14 4 0.45000055026240521 0.45000068505147439 0.15003283206157794
14 4 0.39999802551075248 0.49999987261604067 -4.9266671641462979e-09
14 4 0.54999935312971393 0.54999947972493113 0.15003282425025496
14 4 0.49999993447411678 0.39999793751800011 1.0000000039001915
14 4 0.5499864175901088 0.45001369632635324 0.049989900082991381
14 4 0.49999998185883177 0.49999992359514994 0.10001210307998792
14 4 0.45010006853490786 0.54989988297305059 0.25013005820074879
14 4 0.40008195447226486 0.40008195304869043 0.30016067747800967
14 4 0.45004568631997277 0.45004580112133635 0.35050681191267463
14 4 0.40003510018179206 0.50001448766573919 0.2000732478303974
14 4 0.54995405906923611 0.54995416668998598 0.35050680162696907
14 4 0.50001448958453376 0.40003500592881547 0.20007317925501628
14 4 0.54989966887661956 0.45010028099699717 0.25013022197726625
14 4 0.50000016390586266 0.49999998440395066 0.30035106815475648
14 4 0.45472920938231753 0.54527082231367086 0.45472956753921406
14 4 0.40182914433399652 0.4018292455591988 0.50035199575723155
14 4 0.45472920819032092 0.45472924969322037 0.54527050225547957
14 4 0.40182930346590978 0.50035204523039678 0.40182937592047008
14 4 0.54527072843367397 0.54527078546972585 0.54527046280417413
14 4 0.50035208113298923 0.40182932146756772 0.40182928923325573
14 4 0.54527078479670765 0.45472922851760045 0.45472954800023041
14 4 0.45004580092795943 0.54995426144015402 0.64949304026498078
14 4 0.40022860237448415 0.40022862265894277 0.69962311855175841
14 4 0.45010045792071079 0.45010051864936401 0.74986956126528059
14 4 0.401829192106469 0.49964799097964652 0.59817077537376817
14 4 0.54989978127221306 0.54989984230052746 0.7498698342071527
14 4 0.49964798461197946 0.40182930046396836 0.59817076602155372
14 4 0.54995429510467608 0.45004577447242339 0.64949303453718399
14 4 0.49999976610698216 0.49999984648647511 0.69964940435921541
14 4 0.45000060967684186 0.54999958990153042 0.84996712314753398
14 4 0.40000552548203439 0.40000546780546165 0.9000051372199297
14 4 0.45001362161428116 0.45001375638421448 0.95001008570860201
14 4 0.40003497773748209 0.49998535758509921 0.79992688351963692
14 4 0.54998639391842896 0.54998652318594776 0.95001012141645957
14 4 0.49998536975820762 0.40003494323870908 0.79992691410428374
14 4 0.54999949142789395 0.45000071823657295 0.84996709918925162
14 4 0.4999999424229723 0.49999986918148875 0.8999879130545092
14 4 0.45001302150121902 0.74999003561563804 0.049991360040847505
14 4 0.40000559581855266 0.59999431348429555 0.099994919729620713
14 4 0.45002611751152799 0.64996667258043461 0.15002707847888441
14 4 0.39999949431825166 0.70000796552626132 0.99999852378694698
14 4 0.5499996964938606 0.74998120962518044 0.15001781064243949
14 4 0.50000000304078851 0.60000181078980785 0.99999998192349393
14 4 0.54999678053303724 0.64999850991609809 0.049990665906076814
14 4 0.49999671906183002 0.7000003519256941 0.099995784990002584
14 4 0.45002036183940491 0.74973382348979556 0.25026616948165681
14 4 0.40022874247280921 0.59977129838826049 0.30037708083185782
14 4 0.45017279109409231 0.64906964533467515 0.35093027464976118
14 4 0.40003394983816076 0.69990364547251693 0.20011717013498934
14 4 0.54998697560018794 0.74986964075630602 0.35005978509737912
14 4 0.49998550222505328 0.59996488025741102 0.20007325786796606
14 4 0.54998678979564575 0.64994026103817626 0.25013022335565194
14 4 0.50000593693330408 0.69950332431328877 0.30049672769169722
14 4 0.45010050169106081 0.74986946136354804 0.45010050946806618
14 4 0.40182907655011685 0.59817098743433417 0.49964792327559776
14 4 0.45004577210606572 0.64949301472392595 0.54995429507359472
14 4 0.40022856275084429 0.69962317598617607 0.4002286003697923
14 4 0.54989982597336884 0.74986977363504337 0.54989981691271717
14 4 0.49964792637681038 0.5981708160176703 0.40182932438911512
14 4 0.54995435259421799 0.64949304143904596 0.4500457505349526
14 4 0.4999997117714049 0.69964951342091164 0.499999813726279
14 4 0.45001308051258654 0.74986980114244894 0.64994042383125095
14 4 0.40008188909949283 0.59991797515893974 0.69983935701281308
14 4 0.45001305943214659 0.64994043107802979 0.74986984606179563
14 4 0.40008186602521317 0.6998394743072629 0.59991792338866545
14 4 0.54997959985626443 0.74973392560742669 0.74973390000964069
14 4 0.50035179068711266 0.59817080670426226 0.59817071220251128
14 4 0.54982725974159175 0.64906982284991976 0.64906982301942329
14 4 0.499994001364785 0.69950319639909242 0.69950316671680268
14 4 0.45000016885859878 0.7499813341157664 0.8499822770222103
14 4 0.40000123373581614 0.59999860482729284 0.90000658029914038
14 4 0.45000310913393743 0.64999856864700589 0.95000939577541332
14 4 0.40002982308822382 0.69998106508617952 0.79995586161463439
14 4 0.54998682336920091 0.74999002737238629 0.95000869785878106
14 4 0.50001452020195591 0.59996475704571972 0.79992677103964005
14 4 0.54997375184365849 0.64996670078384511 0.84997294326091866
14 4 0.50000335876285862 0.7000002857441332 0.90000415911777509
14 4 0.44999183023217565 0.94999833626000019 0.050001766313758841
14 4 0.40001310986063321 0.79997742390943605 0.10001020234738928
14 4 0.44999835181884557 0.84994259694195362 0.15005744830339179
14 4 0.39999656420680446 0.89999218330170949 3.9968508773843397e-06
14 4 0.55000187671540546 0.95000319672437583 0.15000455981653504
14 4 0.50000004556048372 0.80001199220188812 0.99999998441996607
14 4 0.55000182421617982 0.8499955147346604 0.049996850290127313
14 4 0.50002051770832201 0.89998840537285396 0.1000115123981886
14 4 0.45001309955188229 0.95000863865973961 0.25001008316786649
14 4 0.40003390574775893 0.79988290044294064 0.30009626348180646
14 4 0.45002629989616699 0.84997275226309343 0.35003349203582834
14 4 0.40001308042929368 0.89998976445003631 0.2000224881635671
14 4 0.54999688645507328 0.9500092679141513 0.35000161630144211
14 4 0.50000938475860868 0.79989085510999614 0.20010911199401643
14 4 0.54999978646968417 0.84998214933673299 0.25001884862157969
14 4 0.49999661565934339 0.90000427333755006 0.29999953787656664
14 4 0.45001362942274115 0.95000996378864166 0.45001364109389591
14 4 0.40003493751957675 0.79992698918883032 0.4999853818259915
14 4 0.4500006500943452 0.84996701296452981 0.54999951632938571
14 4 0.40000552507505771 0.9000052112591751 0.40000554842642255
14 4 0.54998641861114805 0.95001002183305849 0.54998642232443962
14 4 0.49998534347560569 0.79992699698380365 0.40003497392296611
14 4 0.54999951880483422 0.84996701129233898 0.45000065131360001
14 4 0.49999992048085634 0.89998802255909593 0.49999995495606275
14 4 0.45000314884917114 0.9500093158344195 0.64999845032587278
14 4 0.40002980062462068 0.7999559090994528 0.69998109059574587
14 4 0.45000019209004927 0.84998227590291053 0.74998126527443787
14 4 0.40000119414583984 0.90000666848954214 0.59999868440543802
14 4 0.54998685938475955 0.95000870584561914 0.74998993459934982
14 4 0.50001447448072822 0.79992685418142984 0.59996479126103486
14 4 0.5499737916013695 0.84997290407603365 0.6499666282256007
14 4 0.50000332043749562 0.90000418256151316 0.70000037224726008
14 4 0.44999805843090329 0.95000325282334841 0.84999546141031324
14 4 0.39999392498145669 0.8000077016511935 0.90000168488181809
14 4 0.44999803839009878 0.84999556537764787 0.95000319555104895
14 4 0.3999939026656823 0.90000165879952121 0.80000778556684926
14 4 0.5500080883928159 0.94999833187584193 0.94999824487828577
14 4 0.49999064316129571 0.79989075318566771 0.79989079328054979
14 4 0.55000153799927387 0.84994263801687953 0.84994257134174223
14 4 0.49997951290683534 0.89998837612548488 0.89998847026367546
14 4 0.65000275822361142 0.15001844271999187 0.050007645432308415
14 4 0.60000344231073399 3.958852805748275e-06 0.10000769888243075
14 4 0.65000273718916413 0.050007641267328908 0.15001842177282998
14 4 0.60000342079985891 0.10000762841148574 4.007535584611499e-06
14 4 0.74998641192652593 0.15001655760631913 0.15001660348172099
14 4 0.69998426361539778 0.99999998413602387 0.9999999893924485
14 4 0.74998809625059559 0.049998594219625353 0.049998637885347273
14 4 0.69999349956925205 0.10000407047713833 0.10000406250595889
14 4 0.64997504867368616 0.15005563064281516 0.25005320591491809
14 4 0.60000049895505525 0.9999985767216315 0.29999189230294743
14 4 0.64998912981214219 0.049994131829183414 0.35001089182813516
14 4 0.59998687565895281 0.10001019774252748 0.20002249234772138
14 4 0.74994680323645913 0.15005565136226467 0.35002496720513737
14 4 0.70000423578617332 2.3077626174506575e-06 0.20000652858864909
14 4 0.74999263439881758 0.050010419048756777 0.25000740821961398
14 4 0.69999069389461677 0.10000829154573118 0.30000929193523174
14 4 0.64996654678985522 0.15002705773563782 0.45002621561827943
14 4 0.60000191198277808 4.9475075175567092e-08 0.49999999578224225
14 4 0.64999840097825767 0.049990618840420976 0.54999685090117334
14 4 0.59999441711723567 0.099994945965069068 0.40000557768862838
14 4 0.74998112531428129 0.15001785665148734 0.54999975084521635
14 4 0.70000807419933009 0.9999985415163255 0.39999946439409984
14 4 0.74998994339457725 0.049991361276152564 0.45001309734916745
14 4 0.7000004734494768 0.099995771011071155 0.4999966958410007
14 4 0.64998888604322869 0.15001896889461874 0.64998892549750931
14 4 0.60000053955918675 1.4357180530998601e-06 0.70000809101437589
14 4 0.64999531800074783 0.049994563383324017 0.74999525513083865
14 4 0.59999878914035365 0.09999342458774696 0.59999875848741591
14 4 0.74999420869231281 0.15000235022006883 0.74999421646975695
14 4 0.70000809802402686 1.4299708901687355e-06 0.60000053347571958
14 4 0.74999525023386204 0.049994575306705646 0.64999533991270486
14 4 0.70000709259522476 0.099995713610261938 0.70000705313705125
14 4 0.65000386226012641 0.15001261586315473 0.84998742404789995
14 4 0.60000346514843428 0.99999591667189591 0.89999230482542136
14 4 0.6499956561344028 0.050004464312371946 0.9499955879392501
14 4 0.60000612823779198 0.099998208769214794 0.80000784296999083
14 4 0.74999082735441813 0.15000705831829211 0.95000081834997308
14 4 0.70000428415344784 0.99999768125367028 0.79999346829012064
14 4 0.74999078041391465 0.049999201283468041 0.84999292666478377
14 4 0.69999953548564631 0.10000378234126453 0.89999617729020731
14 4 0.64998916721332267 0.35001091370414089 0.049994184979447735
14 4 0.59998685244433114 0.20002245001751709 0.1000102058562288
14 4 0.64997507268939991 0.2500532036282942 0.15005566166538234
14 4 0.60000046282976771 0.29999183058558326 0.99999854307884162
14 4 0.74994683825020925 0.35002492841151739 0.15005565962443468
14 4 0.70000420499079907 0.20000653057910753 2.2891164639279067e-06
14 4 0.74999266530522091 0.25000736188863942 0.050010450636107977
14 4 0.69999065826651286 0.30000931170537087 0.10000827101547331
14 4 0.64985702444239712 0.35014294880734087 0.25021279619378678
14 4 0.59996604395332886 0.20011719218092414 0.30009632615076204
14 4 0.64985699815826747 0.25021274623568152 0.35014296775284981
14 4 0.59996601954615369 0.30009633168002786 0.20011715710180319
14 4 0.74978712000208747 0.35014302444927253 0.35014301405295423
14 4 0.69998851718252464 0.2000334205164144 0.2000333958133976
14 4 0.74993383626917398 0.25006615069299942 0.2500661739358413
14 4 0.69987230465158345 0.30012775769614475 0.30012772819480366
14 4 0.64906962448908601 0.35093027418505285 0.45017287166151876
14 4 0.59996503283929592 0.20007323997791046 0.49998550593806029
14 4 0.6499401285441252 0.25013025874407896 0.54998682366492668
14 4 0.59977134440053548 0.30037707654867946 0.40022872577863083
14 4 0.7498696331695297 0.35005990230653977 0.54998692908376334
14 4 0.69990370313264882 0.20011716227805121 0.40003394946686405
14 4 0.74973380753553487 0.25026618216875068 0.45002041534529319
14 4 0.69950344745050197 0.30049660417584878 0.50000600508424875
14 4 0.64994030836666794 0.35005964553745028 0.64994030230012001
14 4 0.59997029017770231 0.2000439854538151 0.69998127955382639
14 4 0.64999092530929081 0.25001859794762382 0.74998140450516582
14 4 0.59991819395356272 0.30016066134922059 0.59991810749406838
14 4 0.74998150078546477 0.35000902231382641 0.74998148849246471
14 4 0.69998139391006109 0.20004391114312589 0.599970313092689
14 4 0.74998135931701504 0.2500186468010509 0.64999088987552844
14 4 0.69996424435852156 0.30003574656627718 0.6999642254345062
14 4 0.64998902336696129 0.35001108155927613 0.84998106167105858
14 4 0.60000607256679617 0.19999207394989463 0.90000174148639311
14 4 0.64999541077419076 0.25000479287244054 0.95000547072462227
14 4 0.59997016688747029 0.30001869619615923 0.79995600340822948
14 4 0.74999531929373919 0.35000461914451414 0.95000549458078742
14 4 0.70001196218087824 0.20000998064962991 0.79998997358971258
14 4 0.74999426646323486 0.25000577057372891 0.84999769113510382
14 4 0.70000697158328906 0.29999295090176892 0.90000422801945379
14 4 0.64999839702125539 0.54999687759428495 0.049990656587242305
14 4 0.5999943757729137 0.40000554201375788 0.099994889534713111
14 4 0.64996658365251125 0.4500262216575332 0.15002710348352397
14 4 0.60000190998013869 0.49999993913237667 0.99999999084436253
14 4 0.74998113746780504 0.5499997181617321 0.15001782623744098
14 4 0.70000805468799221 0.39999947355847382 0.99999852995156868
14 4 0.74998996284169295 0.45001305527344027 0.049991347106544806
14 4 0.7000004524147464 0.4999967178568348 0.099995778153672735
14 4 0.6499401566886075 0.54998681532703175 0.25013028696570255
14 4 0.59977130055763961 0.40022876193598173 0.30037702002713823
14 4 0.64906958296932327 0.45017287943787154 0.35093038422860756
14 4 0.5999649897996312 0.49998550682770632 0.20007318619403575
14 4 0.7498696758952168 0.54998695530663477 0.35005985840492343
14 4 0.69990366447949814 0.40003397088724996 0.20011715192639504
14 4 0.74973382640470054 0.45002041400409176 0.25026617624689695
14 4 0.69950338067267681 0.50000600868980394 0.30049663829983059
14 4 0.64949317423000164 0.54995434492354445 0.45004586396913138
14 4 0.59817095982179569 0.40182911931407622 0.4996478796214992
14 4 0.6494931378422456 0.45004585626231958 0.54995432659836085
14 4 0.5981707940513501 0.49964789474917248 0.40182925516961421
14 4 0.74987003633399796 0.54990002177215569 0.54989995967114536
14 4 0.69962311657462695 0.40022862316466745 0.40022863409931669
14 4 0.74986956122505855 0.45010057473149667 0.4501005246576999
14 4 0.69964922260865314 0.49999966504881471 0.49999968105754256
14 4 0.64906989402814463 0.54982735027335661 0.64906985224113922
14 4 0.59991791919228699 0.40008194635189953 0.69983939198877121
14 4 0.64994040605059855 0.45001310453544197 0.74986982501327581
14 4 0.59817069149403634 0.50035179686816522 0.59817068628450554
14 4 0.7497339115071443 0.54997964279116895 0.74973388076042669
14 4 0.69983942396449139 0.40008183538784203 0.59991795363491207
14 4 0.7498698730425466 0.45001317003406976 0.64994043412669034
14 4 0.69950318062236239 0.49999400481186207 0.6995031774564644
14 4 0.64996660715310406 0.54997382295807307 0.8499729211058652
14 4 0.59999867324331724 0.40000117326598728 0.90000661343581601
14 4 0.64999845915542032 0.45000320027345847 0.95000936832840266
14 4 0.59996480705219557 0.50001449868228354 0.79992680259865312
14 4 0.74998993571073025 0.54998684954907351 0.95000867357888252
14 4 0.69998111275529018 0.40002983190264924 0.79995589694785108
14 4 0.74998127281780214 0.45000019293062415 0.84998225236110281
14 4 0.70000038779438556 0.50000334828198256 0.90000418665529169
14 4 0.64999528132151529 0.74999528193963017 0.049994552830747288
14 4 0.5999987865159121 0.5999987228510375 0.099993392501834463
14 4 0.64998888148480904 0.64998892940750352 0.15001898207597592
14 4 0.60000057492975356 0.70000802796298178 1.4375855414961864e-06
14 4 0.74999418656658978 0.74999417925411249 0.15000233945850294
14 4 0.70000811970878773 0.60000054338904729 1.4464242017608421e-06
14 4 0.74999522748240621 0.64999530100364367 0.049994548601309342
14 4 0.70000711358280432 0.70000707270289475 0.099995740938028418
14 4 0.64999092358733923 0.74998138390953228 0.25001858594871657
14 4 0.59991812952926038 0.59991812783373011 0.30016065877315007
14 4 0.64994034581000881 0.64994028070108822 0.35005964558133174
14 4 0.59997028474231973 0.69998127587728554 0.20004398928738151
14 4 0.74998151942424229 0.749981497667499 0.35000900073535618
14 4 0.69998136930037402 0.59997033789406384 0.20004393215729363
14 4 0.74998137436504053 0.64999087687251988 0.25001861736981129
14 4 0.69996422075095965 0.69996424797356782 0.30003576569122764
14 4 0.64994044868427026 0.74986981730568314 0.45001306894505816
14 4 0.59817080072974305 0.59817089358792463 0.50035180809080315
14 4 0.64906998667977456 0.64906994035807419 0.54982731492975601
14 4 0.5999178633953528 0.69983945871719833 0.40008195227091459
14 4 0.74973396098007672 0.74973394947571148 0.54997959119710227
14 4 0.69983937048003619 0.59991795122702307 0.40008186297014259
14 4 0.74986991853668061 0.64994047850821268 0.45001311372953379
14 4 0.69950316791765588 0.69950320350215422 0.49999405062074764
14 4 0.64985696092086009 0.74978710091087852 0.64985692546579266
14 4 0.59977129842688881 0.59977129982837984 0.69962301544553041
14 4 0.64985693861866101 0.64985696394650572 0.74978707827352287
14 4 0.59977127214529524 0.69962307169417981 0.59977130615928942
14 4 0.74993367317976511 0.74993365272158841 0.74993362022763044
14 4 0.6996229530939877 0.5997712369758994 0.59977126551536664
14 4 0.74978719447844056 0.64985699822047871 0.64985694295215812
14 4 0.69987238618607073 0.69987240271254814 0.69987243100713858
14 4 0.64997491352520209 0.74994675884852868 0.84994426432645254
14 4 0.59999440379603763 0.59999432931802898 0.90000506011077686
14 4 0.6499890857434264 0.64998916461780043 0.95000583619099654
14 4 0.59996609110445698 0.69990365676917143 0.79988282489397988
14 4 0.7499925485141552 0.74999254714980246 0.94998953681811027
14 4 0.69990371430588427 0.59996607933892399 0.79988284064877635
14 4 0.74994671365450627 0.6499749208793224 0.84994424800874779
14 4 0.69999076273337002 0.69999072339381641 0.89999176352438148
14 4 0.64999563458997489 0.94999560640487613 0.050004431545581478
14 4 0.60000616156100606 0.80000779945341083 0.099998250804555558
14 4 0.6500038281851781 0.84998741956755197 0.15001258934787831
14 4 0.60000348639902268 0.89999223470182788 0.99999598652837507
14 4 0.74999079727044393 0.95000077164759955 0.15000709109602595
14 4 0.70000431723718726 0.79999346568857022 0.99999770638344165
14 4 0.74999074960083068 0.84999288698109232 0.049999210873463623
14 4 0.69999956608721847 0.89999618959065142 0.10000379917710872
14 4 0.64999537638927118 0.95000543599952336 0.2500047640983506
14 4 0.59997015878476823 0.79995604186001734 0.30001872897611503
14 4 0.64998902005881132 0.84998102082834004 0.35001104807687849
14 4 0.60000610348583117 0.90000174013804102 0.19999213689431691
14 4 0.74999530039087547 0.95000548574753785 0.35000465140591608
14 4 0.70001198024965516 0.79998999783642755 0.20001000201707694
14 4 0.74999424541892123 0.84999766533085153 0.25000578253596639
14 4 0.70000698936955286 0.90000425246173721 0.2999929557407785
14 4 0.64999845816440327 0.95000931789116816 0.45000316343208491
14 4 0.59996476566060386 0.7999268621949307 0.50001453001034712
14 4 0.64996664321890352 0.84997290160540462 0.54997377760436061
14 4 0.59999867198230472 0.90000666903469573 0.40000122691558387
14 4 0.74998995640668842 0.95000870482213062 0.54998687489620035
14 4 0.69998108664924774 0.79995590707868713 0.40002985498190768
14 4 0.74998129320233842 0.84998228002409837 0.45000019231427246
14 4 0.7000003628913446 0.9000041824423064 0.50000335410322438
14 4 0.64998912183725521 0.95000582455027416 0.64998912054844749
14 4 0.59996606870308666 0.79988282756346452 0.69990369879696368
14 4 0.64997493218527358 0.84994429534686167 0.74994670678577313
14 4 0.59999436470653256 0.90000509620474178 0.59999438736762967
14 4 0.74999257864132296 0.94998955371028471 0.74999256466939879
14 4 0.69990367763282957 0.7998828227576027 0.59996610421812446
14 4 0.74994674433405761 0.84994429013734396 0.64997490994604479
14 4 0.69999072738850587 0.89999173840305402 0.69999074040641474
14 4 0.65000266093793135 0.94999239448622763 0.84998156428181626
14 4 0.59998697771227594 0.79997745065158454 0.89998978777683014
14 4 0.65000264067618629 0.84998160566190306 0.94999235916450053
14 4 0.59998695601501806 0.89998974683580735 0.79997751952230378
14 4 0.74998804601929159 0.95000135406383424 0.95000138273638912
14 4 0.69998863067477379 0.79996667701639179 0.79996671118354801
14 4 0.74998628062290928 0.84998333765347711 0.84998333331609244
14 4 0.6999935931599055 0.89999592724443933 0.89999594712344011
14 4 0.84999108902125009 0.15000888413313004 0.050004069849198279
14 4 0.79999135660120668 2.3535939327167587e-06 0.10000209712588873
14 4 0.8499910722254167 0.050003999265558298 0.15000897768228086
14 4 0.79999134012775508 0.10000215684253067 2.2945852956545703e-06
14 4 0.94999598793070994 0.15000889892285943 0.15000897026498602
14 4 0.89999326857484252 7.8659784039697365e-08 0.99999997901284621
14 4 0.95000461216753451 0.049995319195099641 0.049995435252625828
14 4 0.90000068527117261 0.09999938699815103 0.099999299659357527
14 4 0.84998343433124224 0.15001657621629425 0.25001363981928298
14 4 0.79999344975747311 2.2788813470418452e-06 0.29999574639871845
14 4 0.84998160628782504 0.050007680373301784 0.34999728549993764
14 4 0.79999354105101572 0.10000688317900031 0.20000644309985754
14 4 0.94999237103279621 0.15001847240621927 0.34999729122762241
14 4 0.89999790191869267 2.332826488761823e-06 0.20000864014941189
14 4 0.95000139593513799 0.049998627457531399 0.25001193658818577
14 4 0.89999594556518214 0.10000404224025514 0.30000647105137018
14 4 0.84994256425913151 0.15005750024618578 0.44999840965555366
14 4 0.8000121121287378 0.99999993472634985 0.50000002197386662
14 4 0.84999544416753348 0.049996915954497838 0.55000186892912506
14 4 0.79997752289629831 0.10001016297034691 0.40001308866154234
14 4 0.95000315766031929 0.15000465781537817 0.55000189745005101
14 4 0.8999923070872905 3.9145062737130041e-06 0.39999656893213764
14 4 0.94999825372647362 0.050001859989871042 0.44999186165182331
14 4 0.89998851622975407 0.10001141758878238 0.50002050573250678
14 4 0.84998740399287043 0.15001264251009611 0.65000385424344576
14 4 0.79999348871538911 0.99999767662552508 0.70000427378022245
14 4 0.84999293443038626 0.049999207586331376 0.74999077391143665
14 4 0.80000789965356356 0.099998183038713176 0.60000614055236334
14 4 0.95000081180767848 0.15000707200844735 0.74999079930194656
14 4 0.89999233429043002 0.99999590497639423 0.60000348188375552
14 4 0.94999558969403253 0.050004477099068335 0.64999563958820439
14 4 0.89999622927060563 0.10000376459758982 0.69999954362813677
14 4 0.84999388951604793 0.1500060990142936 0.84999387875652965
14 4 0.79999137504400519 0.99999770965619861 0.89999787451878266
14 4 0.84998698393197947 0.050001286245355783 0.94999866549299672
14 4 0.79999647901673754 0.099997365522753123 0.79999644362237243
14 4 0.94999868548547894 0.15001294336464208 0.94999866785222797
14 4 0.89999790682039249 0.99999770767219109 0.79999135603269711
14 4 0.94999867192830767 0.050001289705138473 0.84998696356072001
14 4 0.89999665026337794 0.10000342386527698 0.89999661980955092
14 4 0.84998163805817939 0.34999718846061528 0.050007644800270555
14 4 0.79999352655871103 0.20000650976635645 0.10000684774029318
14 4 0.84998345578929657 0.25001356403520392 0.15001659515239704
14 4 0.79999342382182947 0.2999958186417237 2.2826948502033683e-06
14 4 0.94999240384156858 0.3499972206995221 0.15001841442451211
14 4 0.89999787454119928 0.20000874637500587 2.2962598276474131e-06
14 4 0.95000142909065055 0.25001182730832805 0.04999863077933181
14 4 0.89999591727701811 0.30000657098959854 0.10000406877970133
14 4 0.84994435141602265 0.35002496968646757 0.25005320965206107
14 4 0.79996661399433555 0.20003339994759117 0.30001145598075996
14 4 0.84994433383442392 0.25005324845658233 0.3500249802682785
14 4 0.79996659466053133 0.30001150703330243 0.20003339956334221
14 4 0.95000582732335825 0.35001097867996539 0.35001091281408042
14 4 0.8999931454694301 0.20000649385789609 0.20000644757287284
14 4 0.94998959183451503 0.2500073945130164 0.25000740279026357
14 4 0.89999175186292302 0.30000926621214419 0.3000092885973813
14 4 0.84997282481114289 0.35003357047222633 0.45002631382328062
14 4 0.79989095778745167 0.20010902076243167 0.5000093943445223
14 4 0.84998213930996713 0.25001894660368079 0.54999980217290612
14 4 0.79988291563929526 0.30009625296996334 0.40003392633855245
14 4 0.9500093396650362 0.35000171872889635 0.54999691265243011
14 4 0.89998983275192324 0.20002241313908056 0.40001307711543382
14 4 0.95000865036041071 0.25001017873887532 0.45001313722955599
14 4 0.90000429648296876 0.29999942668582924 0.49999663834858366
14 4 0.84998104587602141 0.35001112376820348 0.64998900923198499
14 4 0.79999005248265898 0.20000994130679911 0.70001197033047979
14 4 0.84999768809392706 0.25000578754907021 0.74999424778772428
14 4 0.7999561197897076 0.30001858929491676 0.59997024250203157
14 4 0.95000549283851454 0.35000464741743809 0.74999529620396543
14 4 0.90000180963076637 0.19999204255080541 0.60000610919260056
14 4 0.95000544961978928 0.25000481043057127 0.64999539337708834
14 4 0.9000042859396522 0.29999291253599064 0.70000698285671403
14 4 0.84998749100377413 0.34999607587476028 0.84998747168757216
14 4 0.79999643135256193 0.2000035795786205 0.90000259664976801
14 4 0.84999298092199072 0.25000914087331289 0.95000082747433734
14 4 0.79998993619653613 0.29998808586059095 0.79998990659621416
14 4 0.94999562313447972 0.35000422191248526 0.9499955966595397
14 4 0.90000264441824007 0.20000356527166335 0.79999641840201896
14 4 0.95000083281822723 0.25000915507803445 0.84999294934727643
14 4 0.89999617634210538 0.30000056444009032 0.89999615186732584
14 4 0.84999544313470232 0.55000178140091904 0.049996836951535076
14 4 0.79997749091529169 0.40001316108102775 0.10001020778381602
14 4 0.8499425867212872 0.44999835052206877 0.15005743241155814
14 4 0.80001211365299485 0.50000009551904889 1.0000000011433139
14 4 0.95000317226823017 0.5500018344019395 0.15000455753663611
14 4 0.89999228960485333 0.39999667775264547 3.9982441084882785e-06
14 4 0.94999827130446068 0.44999175971128991 0.050001759113487504
14 4 0.89998850183881973 0.50002060296148421 0.10001152644987507
14 4 0.84998217133128318 0.54999979839853608 0.25001886804356777
14 4 0.79988289572100779 0.40003392009468458 0.30009629134662502
14 4 0.84997284534169049 0.45002637384028293 0.35003348507751331
14 4 0.79989091826801295 0.50000942924255809 0.20010909389344497
14 4 0.95000937182302425 0.54999698824079779 0.35000161079168424
14 4 0.89998980588101762 0.40001312174456105 0.20002249423663523
14 4 0.95000867916290688 0.45001314006433901 0.25001008115894841
14 4 0.90000426516158316 0.49999661347476887 0.29999952770144522
14 4 0.84996717014331769 0.5499996303476854 0.45000066719476878
14 4 0.7999269587136083 0.40003486394569027 0.49998540927463131
14 4 0.84996714618144253 0.4500007682654123 0.54999953208957397
14 4 0.7999269324392172 0.49998535864486854 0.40003493265729495
14 4 0.95001014885495583 0.54998653943754194 0.54998641557385242
14 4 0.90000519047838268 0.40000545832474022 0.40000554099296626
14 4 0.95001009702664319 0.45001376116883313 0.4500136377863157
14 4 0.89998793904245311 0.49999985655947471 0.49999996268902525
14 4 0.84997299748611299 0.54997388617867526 0.64996663484802519
14 4 0.79995593101410278 0.40002978645359899 0.69998111817626008
14 4 0.84998228370018281 0.45000022503740861 0.74998125890460021
14 4 0.79992675319983275 0.50001444676024787 0.59996476918240149
14 4 0.9500087056347164 0.54998687246487687 0.74998992152269928
14 4 0.90000665244155253 0.40000114094452505 0.59999868738880968
14 4 0.95000937992241752 0.45000322994075609 0.64999845826769431
14 4 0.90000419821308775 0.50000331564311218 0.70000038160434985
14 4 0.84994258335943296 0.55000151855442181 0.8499425457753309
14 4 0.80000779574086989 0.39999397583496876 0.90000169305886701
14 4 0.84999549034465438 0.44999799896549736 0.9500031873198741
14 4 0.7998908259778188 0.49999066678969456 0.79989081389308725
14 4 0.94999824542899969 0.55000799993871663 0.94999823470891298
14 4 0.90000172472789497 0.39999395853651493 0.80000778221745328
14 4 0.9500032024507703 0.4499980146918699 0.84999546022548966
14 4 0.89998850179931622 0.49997961366725585 0.89998848128107156
14 4 0.84999290401159133 0.74999069245613614 0.049999200903864706
14 4 0.80000789989896326 0.60000621265809329 0.099998249119931673
14 4 0.84998739913963206 0.65000379546572318 0.15001258847342638
14 4 0.79999351973869559 0.70000434070252182 0.99999771685814753
14 4 0.95000078730909321 0.74999074400071264 0.15000707578758921
14 4 0.89999235368214181 0.60000359021126271 0.99999599992155797
14 4 0.94999556785820627 0.64999554245432656 0.050004414375995933
14 4 0.89999624903838737 0.69999963359811579 0.10000380829406286
14 4 0.84999768478147286 0.74999423875177673 0.25000578132292745
14 4 0.79995608034401589 0.59997023647852743 0.30001865381133419
14 4 0.84998108104693371 0.64998905674913776 0.3500110579905521
14 4 0.79999005205013685 0.70001201244001054 0.20000997815772326
14 4 0.9500055073768322 0.74999536692201041 0.35000464754441896
14 4 0.90000179470711672 0.60000615232711252 0.19999213450729292
14 4 0.95000546265692687 0.64999539783790061 0.25000475312950027
14 4 0.90000426739518646 0.7000069544627523 0.29999295078125948
14 4 0.84998231711563987 0.74998134620494583 0.45000020332555474
14 4 0.79992672768703699 0.59996469942843023 0.50001451720705492
14 4 0.84997301913021606 0.64996673778584402 0.54997380644309313
14 4 0.79995588708199583 0.6999810682247849 0.40002983173861711
14 4 0.95000873117473483 0.74999003207223025 0.54998686775669625
14 4 0.9000066160932666 0.59999860705734887 0.40000122967877416
14 4 0.95000941185061516 0.64999857555104412 0.45000315776486988
14 4 0.90000416699164343 0.7000002733069155 0.50000335536874163
14 4 0.84994432370267314 0.74994675906200403 0.64997490203365071
14 4 0.79988282261333044 0.59996606702472122 0.69990370492224363
14 4 0.84994431115791325 0.64997492887182617 0.74994668399020536
14 4 0.79988280066730844 0.69990363462424898 0.5999661108282629
14 4 0.94998957476553014 0.74999254986062758 0.74999254268172744
14 4 0.9000050447918988 0.59999430888738503 0.59999440205607779
14 4 0.95000587586943541 0.64998917793490141 0.64998910206308735
14 4 0.89999175912070795 0.69999071406473756 0.69999076079610056
14 4 0.84998335427704197 0.74998622025349149 0.84998331686794926
14 4 0.79997754897443574 0.59998701377435482 0.89998981028434966
14 4 0.84998156206686781 0.65000258567402747 0.94999233877402711
14 4 0.79996670751095067 0.69998865805905852 0.79996672449269357
14 4 0.95000137026654274 0.74998793742638303 0.95000135861076029
14 4 0.89998981912787612 0.59998700321761711 0.79997753945590744
14 4 0.94999236824101596 0.65000259294351848 0.84998154420050509
14 4 0.89999598894883592 0.6999936718027544 0.89999596687329975
14 4 0.84998696633520521 0.949998571993245 0.050001370142151905
14 4 0.79999650742498307 0.79999650768487895 0.099997367135852874
14 4 0.84999386149407252 0.8499938148899181 0.1500061427114108
14 4 0.79999139200317526 0.89999793572014808 0.99999767394289607
14 4 0.94999865408712303 0.94999859743089421 0.1500130545184547
14 4 0.89999793571883724 0.79999145617930767 0.99999768864211092
14 4 0.9499986412699809 0.84998685925708362 0.050001357266585333
14 4 0.89999667358720248 0.89999670347381422 0.10000335152472623
14 4 0.84999295061149382 0.95000080506751017 0.25000922716342616
14 4 0.79998993190539458 0.79998990219755739 0.2999880810071397
14 4 0.84998748830336057 0.84998750946828738 0.34999611745791276
14 4 0.7999964572869801 0.90000263690671378 0.20000353799508255
14 4 0.9499956017522716 0.94999565720269286 0.35000432585492919
14 4 0.90000266412230168 0.7999964540237211 0.20000354153661443
14 4 0.95000081077675935 0.84999294873716502 0.25000922322255964
14 4 0.89999619423237198 0.89999612576932408 0.30000048116227307
14 4 0.84999548935152502 0.95000325676164665 0.44999807770432249
14 4 0.79989079260701834 0.79989074614959632 0.49999067369703198
14 4 0.84994261276191363 0.84994263927750058 0.55000155027437725
14 4 0.80000779260386368 0.90000165383118691 0.39999393273129707
14 4 0.94999826337775095 0.94999833667377021 0.55000809935933326
14 4 0.90000170736917795 0.80000769487837886 0.39999393448585691
14 4 0.95000321760719852 0.84999556457739256 0.4499980771174027
14 4 0.8999884860611449 0.89998837413202704 0.49997953110936189
14 4 0.84998159216319846 0.94999239910312516 0.65000265987288353
14 4 0.79996668627638667 0.79996667303881752 0.69998866181988695
14 4 0.8499833709203044 0.84998333502121381 0.74998625158554233
14 4 0.79997751607466894 0.89998974253256436 0.59998696799051954
14 4 0.95000139986195176 0.95000135798852037 0.74998803057982222
14 4 0.89998979082924013 0.79997744299755102 0.5999869764865986
14 4 0.94999239513289391 0.84998161035908837 0.65000265000765445
14 4 0.89999596094794465 0.89999592266698014 0.69999359051913423
14 4 0.84999103500800288 0.94999589218248714 0.84999101894831885
14 4 0.79999361075393716 0.79999362477638525 0.89999319361803098
14 4 0.84999101912531549 0.84999094381971552 0.94999593577779351
14 4 0.79999359368462364 0.89999319064984207 0.79999358990789882
14 4 0.9500046039415353 0.95000448269123228 0.95000459863775766
14 4 0.89999320468868216 0.79999362217168424 0.79999360139417464
14 4 0.94999595425081118 0.84999094324038449 0.84999100427933816
14 4 0.90000071687305883 0.90000076436802701 0.90000068899955066
