15   5        0.000000000         0.011089847         0.441459239
15   5        0.000000000         0.136089846         0.441459239
15   5        0.000000000         0.261089861         0.441459239
15   5        0.000000000         0.386089861         0.441459239
15   5        0.000000000         0.511089861         0.441459239
15   5        0.000000000         0.636089861         0.441459239
15   5        0.000000000         0.761089861         0.441459239
15   5        0.000000000         0.886089861         0.441459239
15   5        0.090909094         0.011089847         0.441459239
15   5        0.090909094         0.136089846         0.441459239
15   5        0.090909094         0.261089861         0.441459239
15   5        0.090909094         0.386089861         0.441459239
15   5        0.090909094         0.511089861         0.441459239
15   5        0.090909094         0.636089861         0.441459239
15   5        0.090909094         0.761089861         0.441459239
15   5        0.090909094         0.886089861         0.441459239
15   5        0.181818187         0.011089847         0.441459239
15   5        0.181818187         0.136089846         0.441459239
15   5        0.181818187         0.261089861         0.441459239
15   5        0.181818187         0.386089861         0.441459239
15   5        0.181818187         0.511089861         0.441459239
15   5        0.181818187         0.636089861         0.441459239
15   5        0.181818187         0.761089861         0.441459239
15   5        0.181818187         0.886089861         0.441459239
15   5        0.272727281         0.011089847         0.441459239
15   5        0.272727281         0.136089846         0.441459239
15   5        0.272727281         0.261089861         0.441459239
15   5        0.272727281         0.386089861         0.441459239
15   5        0.272727281         0.511089861         0.441459239
15   5        0.272727281         0.636089861         0.441459239
15   5        0.272727281         0.761089861         0.441459239
15   5        0.272727281         0.886089861         0.441459239
15   5        0.363636374         0.011089847         0.441459239
15   5        0.363636374         0.136089846         0.441459239
15   5        0.363636374         0.261089861         0.441459239
15   5        0.363636374         0.386089861         0.441459239
15   5        0.363636374         0.511089861         0.441459239
15   5        0.363636374         0.636089861         0.441459239
15   5        0.363636374         0.761089861         0.441459239
15   5        0.363636374         0.886089861         0.441459239
15   5        0.454545468         0.011089847         0.441459239
15   5        0.454545468         0.136089846         0.441459239
15   5        0.454545468         0.261089861         0.441459239
15   5        0.454545468         0.386089861         0.441459239
15   5        0.454545468         0.511089861         0.441459239
15   5        0.454545468         0.636089861         0.441459239
15   5        0.454545468         0.761089861         0.441459239
15   5        0.454545468         0.886089861         0.441459239
15   5        0.545454562         0.011089847         0.441459239
15   5        0.545454562         0.136089846         0.441459239
15   5        0.545454562         0.261089861         0.441459239
15   5        0.545454562         0.386089861         0.441459239
15   5        0.545454562         0.511089861         0.441459239
15   5        0.545454562         0.636089861         0.441459239
15   5        0.545454562         0.761089861         0.441459239
15   5        0.545454562         0.886089861         0.441459239
15   5        0.636363626         0.011089847         0.441459239
15   5        0.636363626         0.136089846         0.441459239
15   5        0.636363626         0.261089861         0.441459239
15   5        0.636363626         0.386089861         0.441459239
15   5        0.636363626         0.511089861         0.441459239
15   5        0.636363626         0.636089861         0.441459239
15   5        0.636363626         0.761089861         0.441459239
15   5        0.636363626         0.886089861         0.441459239
15   5        0.727272749         0.011089847         0.441459239
15   5        0.727272749         0.136089846         0.441459239
15   5        0.727272749         0.261089861         0.441459239
15   5        0.727272749         0.386089861         0.441459239
15   5        0.727272749         0.511089861         0.441459239
15   5        0.727272749         0.636089861         0.441459239
15   5        0.727272749         0.761089861         0.441459239
15   5        0.727272749         0.886089861         0.441459239
15   5        0.818181813         0.011089847         0.441459239
15   5        0.818181813         0.136089846         0.441459239
15   5        0.818181813         0.261089861         0.441459239
15   5        0.818181813         0.386089861         0.441459239
15   5        0.818181813         0.511089861         0.441459239
15   5        0.818181813         0.636089861         0.441459239
15   5        0.818181813         0.761089861         0.441459239
15   5        0.818181813         0.886089861         0.441459239
15   5        0.909090936         0.011089847         0.441459239
15   5        0.909090936         0.136089846         0.441459239
15   5        0.909090936         0.261089861         0.441459239
15   5        0.909090936         0.386089861         0.441459239
15   5        0.909090936         0.511089861         0.441459239
15   5        0.909090936         0.636089861         0.441459239
15   5        0.909090936         0.761089861         0.441459239
15   5        0.909090936         0.886089861         0.441459239
15   5        0.000000000         0.113910154         0.558540761
15   5        0.000000000         0.238910154         0.558540761
15   5        0.000000000         0.363910139         0.558540761
15   5        0.000000000         0.488910139         0.558540761
15   5        0.000000000         0.613910139         0.558540761
15   5        0.000000000         0.738910139         0.558540761
15   5        0.000000000         0.863910139         0.558540761
15   5        0.000000000         0.988910139         0.558540761
15   5        0.090909094         0.113910154         0.558540761
15   5        0.090909094         0.238910154         0.558540761
15   5        0.090909094         0.363910139         0.558540761
15   5        0.090909094         0.488910139         0.558540761
15   5        0.090909094         0.613910139         0.558540761
15   5        0.090909094         0.738910139         0.558540761
15   5        0.090909094         0.863910139         0.558540761
15   5        0.090909094         0.988910139         0.558540761
15   5        0.181818187         0.113910154         0.558540761
15   5        0.181818187         0.238910154         0.558540761
15   5        0.181818187         0.363910139         0.558540761
15   5        0.181818187         0.488910139         0.558540761
15   5        0.181818187         0.613910139         0.558540761
15   5        0.181818187         0.738910139         0.558540761
15   5        0.181818187         0.863910139         0.558540761
15   5        0.181818187         0.988910139         0.558540761
15   5        0.272727281         0.113910154         0.558540761
15   5        0.272727281         0.238910154         0.558540761
15   5        0.272727281         0.363910139         0.558540761
15   5        0.272727281         0.488910139         0.558540761
15   5        0.272727281         0.613910139         0.558540761
15   5        0.272727281         0.738910139         0.558540761
15   5        0.272727281         0.863910139         0.558540761
15   5        0.272727281         0.988910139         0.558540761
15   5        0.363636374         0.113910154         0.558540761
15   5        0.363636374         0.238910154         0.558540761
15   5        0.363636374         0.363910139         0.558540761
15   5        0.363636374         0.488910139         0.558540761
15   5        0.363636374         0.613910139         0.558540761
15   5        0.363636374         0.738910139         0.558540761
15   5        0.363636374         0.863910139         0.558540761
15   5        0.363636374         0.988910139         0.558540761
15   5        0.454545468         0.113910154         0.558540761
15   5        0.454545468         0.238910154         0.558540761
15   5        0.454545468         0.363910139         0.558540761
15   5        0.454545468         0.488910139         0.558540761
15   5        0.454545468         0.613910139         0.558540761
15   5        0.454545468         0.738910139         0.558540761
15   5        0.454545468         0.863910139         0.558540761
15   5        0.454545468         0.988910139         0.558540761
15   5        0.545454562         0.113910154         0.558540761
15   5        0.545454562         0.238910154         0.558540761
15   5        0.545454562         0.363910139         0.558540761
15   5        0.545454562         0.488910139         0.558540761
15   5        0.545454562         0.613910139         0.558540761
15   5        0.545454562         0.738910139         0.558540761
15   5        0.545454562         0.863910139         0.558540761
15   5        0.545454562         0.988910139         0.558540761
15   5        0.636363626         0.113910154         0.558540761
15   5        0.636363626         0.238910154         0.558540761
15   5        0.636363626         0.363910139         0.558540761
15   5        0.636363626         0.488910139         0.558540761
15   5        0.636363626         0.613910139         0.558540761
15   5        0.636363626         0.738910139         0.558540761
15   5        0.636363626         0.863910139         0.558540761
15   5        0.636363626         0.988910139         0.558540761
15   5        0.727272749         0.113910154         0.558540761
15   5        0.727272749         0.238910154         0.558540761
15   5        0.727272749         0.363910139         0.558540761
15   5        0.727272749         0.488910139         0.558540761
15   5        0.727272749         0.613910139         0.558540761
15   5        0.727272749         0.738910139         0.558540761
15   5        0.727272749         0.863910139         0.558540761
15   5        0.727272749         0.988910139         0.558540761
15   5        0.818181813         0.113910154         0.558540761
15   5        0.818181813         0.238910154         0.558540761
15   5        0.818181813         0.363910139         0.558540761
15   5        0.818181813         0.488910139         0.558540761
15   5        0.818181813         0.613910139         0.558540761
15   5        0.818181813         0.738910139         0.558540761
15   5        0.818181813         0.863910139         0.558540761
15   5        0.818181813         0.988910139         0.558540761
15   5        0.909090936         0.113910154         0.558540761
15   5        0.909090936         0.238910154         0.558540761
15   5        0.909090936         0.363910139         0.558540761
15   5        0.909090936         0.488910139         0.558540761
15   5        0.909090936         0.613910139         0.558540761
15   5        0.909090936         0.738910139         0.558540761
15   5        0.909090936         0.863910139         0.558540761
15   5        0.909090936         0.988910139         0.558540761
15   5        0.045454547         0.073589846         0.558540761
15   5        0.045454547         0.198589846         0.558540761
15   5        0.045454547         0.323589861         0.558540761
15   5        0.045454547         0.448589861         0.558540761
15   5        0.045454547         0.573589861         0.558540761
15   5        0.045454547         0.698589861         0.558540761
15   5        0.045454547         0.823589861         0.558540761
15   5        0.045454547         0.948589861         0.558540761
15   5        0.136363640         0.073589846         0.558540761
15   5        0.136363640         0.198589846         0.558540761
15   5        0.136363640         0.323589861         0.558540761
15   5        0.136363640         0.448589861         0.558540761
15   5        0.136363640         0.573589861         0.558540761
15   5        0.136363640         0.698589861         0.558540761
15   5        0.136363640         0.823589861         0.558540761
15   5        0.136363640         0.948589861         0.558540761
15   5        0.227272734         0.073589846         0.558540761
15   5        0.227272734         0.198589846         0.558540761
15   5        0.227272734         0.323589861         0.558540761
15   5        0.227272734         0.448589861         0.558540761
15   5        0.227272734         0.573589861         0.558540761
15   5        0.227272734         0.698589861         0.558540761
15   5        0.227272734         0.823589861         0.558540761
15   5        0.227272734         0.948589861         0.558540761
15   5        0.318181813         0.073589846         0.558540761
15   5        0.318181813         0.198589846         0.558540761
15   5        0.318181813         0.323589861         0.558540761
15   5        0.318181813         0.448589861         0.558540761
15   5        0.318181813         0.573589861         0.558540761
15   5        0.318181813         0.698589861         0.558540761
15   5        0.318181813         0.823589861         0.558540761
15   5        0.318181813         0.948589861         0.558540761
15   5        0.409090906         0.073589846         0.558540761
15   5        0.409090906         0.198589846         0.558540761
15   5        0.409090906         0.323589861         0.558540761
15   5        0.409090906         0.448589861         0.558540761
15   5        0.409090906         0.573589861         0.558540761
15   5        0.409090906         0.698589861         0.558540761
15   5        0.409090906         0.823589861         0.558540761
15   5        0.409090906         0.948589861         0.558540761
15   5        0.500000000         0.073589846         0.558540761
15   5        0.500000000         0.198589846         0.558540761
15   5        0.500000000         0.323589861         0.558540761
15   5        0.500000000         0.448589861         0.558540761
15   5        0.500000000         0.573589861         0.558540761
15   5        0.500000000         0.698589861         0.558540761
15   5        0.500000000         0.823589861         0.558540761
15   5        0.500000000         0.948589861         0.558540761
15   5        0.590909064         0.073589846         0.558540761
15   5        0.590909064         0.198589846         0.558540761
15   5        0.590909064         0.323589861         0.558540761
15   5        0.590909064         0.448589861         0.558540761
15   5        0.590909064         0.573589861         0.558540761
15   5        0.590909064         0.698589861         0.558540761
15   5        0.590909064         0.823589861         0.558540761
15   5        0.590909064         0.948589861         0.558540761
15   5        0.681818187         0.073589846         0.558540761
15   5        0.681818187         0.198589846         0.558540761
15   5        0.681818187         0.323589861         0.558540761
15   5        0.681818187         0.448589861         0.558540761
15   5        0.681818187         0.573589861         0.558540761
15   5        0.681818187         0.698589861         0.558540761
15   5        0.681818187         0.823589861         0.558540761
15   5        0.681818187         0.948589861         0.558540761
15   5        0.772727251         0.073589846         0.558540761
15   5        0.772727251         0.198589846         0.558540761
15   5        0.772727251         0.323589861         0.558540761
15   5        0.772727251         0.448589861         0.558540761
15   5        0.772727251         0.573589861         0.558540761
15   5        0.772727251         0.698589861         0.558540761
15   5        0.772727251         0.823589861         0.558540761
15   5        0.772727251         0.948589861         0.558540761
15   5        0.863636374         0.073589846         0.558540761
15   5        0.863636374         0.198589846         0.558540761
15   5        0.863636374         0.323589861         0.558540761
15   5        0.863636374         0.448589861         0.558540761
15   5        0.863636374         0.573589861         0.558540761
15   5        0.863636374         0.698589861         0.558540761
15   5        0.863636374         0.823589861         0.558540761
15   5        0.863636374         0.948589861         0.558540761
15   5        0.954545438         0.073589846         0.558540761
15   5        0.954545438         0.198589846         0.558540761
15   5        0.954545438         0.323589861         0.558540761
15   5        0.954545438         0.448589861         0.558540761
15   5        0.954545438         0.573589861         0.558540761
15   5        0.954545438         0.698589861         0.558540761
15   5        0.954545438         0.823589861         0.558540761
15   5        0.954545438         0.948589861         0.558540761
15   5        0.045454547         0.051410157         0.441459239
15   5        0.045454547         0.176410154         0.441459239
15   5        0.045454547         0.301410168         0.441459239
15   5        0.045454547         0.426410168         0.441459239
15   5        0.045454547         0.551410139         0.441459239
15   5        0.045454547         0.676410139         0.441459239
15   5        0.045454547         0.801410139         0.441459239
15   5        0.045454547         0.926410139         0.441459239
15   5        0.136363640         0.051410157         0.441459239
15   5        0.136363640         0.176410154         0.441459239
15   5        0.136363640         0.301410168         0.441459239
15   5        0.136363640         0.426410168         0.441459239
15   5        0.136363640         0.551410139         0.441459239
15   5        0.136363640         0.676410139         0.441459239
15   5        0.136363640         0.801410139         0.441459239
15   5        0.136363640         0.926410139         0.441459239
15   5        0.227272734         0.051410157         0.441459239
15   5        0.227272734         0.176410154         0.441459239
15   5        0.227272734         0.301410168         0.441459239
15   5        0.227272734         0.426410168         0.441459239
15   5        0.227272734         0.551410139         0.441459239
15   5        0.227272734         0.676410139         0.441459239
15   5        0.227272734         0.801410139         0.441459239
15   5        0.227272734         0.926410139         0.441459239
15   5        0.318181813         0.051410157         0.441459239
15   5        0.318181813         0.176410154         0.441459239
15   5        0.318181813         0.301410168         0.441459239
15   5        0.318181813         0.426410168         0.441459239
15   5        0.318181813         0.551410139         0.441459239
15   5        0.318181813         0.676410139         0.441459239
15   5        0.318181813         0.801410139         0.441459239
15   5        0.318181813         0.926410139         0.441459239
15   5        0.409090906         0.051410157         0.441459239
15   5        0.409090906         0.176410154         0.441459239
15   5        0.409090906         0.301410168         0.441459239
15   5        0.409090906         0.426410168         0.441459239
15   5        0.409090906         0.551410139         0.441459239
15   5        0.409090906         0.676410139         0.441459239
15   5        0.409090906         0.801410139         0.441459239
15   5        0.409090906         0.926410139         0.441459239
15   5        0.500000000         0.051410157         0.441459239
15   5        0.500000000         0.176410154         0.441459239
15   5        0.500000000         0.301410168         0.441459239
15   5        0.500000000         0.426410168         0.441459239
15   5        0.500000000         0.551410139         0.441459239
15   5        0.500000000         0.676410139         0.441459239
15   5        0.500000000         0.801410139         0.441459239
15   5        0.500000000         0.926410139         0.441459239
15   5        0.590909064         0.051410157         0.441459239
15   5        0.590909064         0.176410154         0.441459239
15   5        0.590909064         0.301410168         0.441459239
15   5        0.590909064         0.426410168         0.441459239
15   5        0.590909064         0.551410139         0.441459239
15   5        0.590909064         0.676410139         0.441459239
15   5        0.590909064         0.801410139         0.441459239
15   5        0.590909064         0.926410139         0.441459239
15   5        0.681818187         0.051410157         0.441459239
15   5        0.681818187         0.176410154         0.441459239
15   5        0.681818187         0.301410168         0.441459239
15   5        0.681818187         0.426410168         0.441459239
15   5        0.681818187         0.551410139         0.441459239
15   5        0.681818187         0.676410139         0.441459239
15   5        0.681818187         0.801410139         0.441459239
15   5        0.681818187         0.926410139         0.441459239
15   5        0.772727251         0.051410157         0.441459239
15   5        0.772727251         0.176410154         0.441459239
15   5        0.772727251         0.301410168         0.441459239
15   5        0.772727251         0.426410168         0.441459239
15   5        0.772727251         0.551410139         0.441459239
15   5        0.772727251         0.676410139         0.441459239
15   5        0.772727251         0.801410139         0.441459239
15   5        0.772727251         0.926410139         0.441459239
15   5        0.863636374         0.051410157         0.441459239
15   5        0.863636374         0.176410154         0.441459239
15   5        0.863636374         0.301410168         0.441459239
15   5        0.863636374         0.426410168         0.441459239
15   5        0.863636374         0.551410139         0.441459239
15   5        0.863636374         0.676410139         0.441459239
15   5        0.863636374         0.801410139         0.441459239
15   5        0.863636374         0.926410139         0.441459239
15   5        0.954545438         0.051410157         0.441459239
15   5        0.954545438         0.176410154         0.441459239
15   5        0.954545438         0.301410168         0.441459239
15   5        0.954545438         0.426410168         0.441459239
15   5        0.954545438         0.551410139         0.441459239
15   5        0.954545438         0.676410139         0.441459239
15   5        0.954545438         0.801410139         0.441459239
15   5        0.954545438         0.926410139         0.441459239
